 # File generated with atomsk by natalia
1.0
   8.051891721012   0.000028631000   0.056723314000
   0.000110898000   5.860179789026   -0.000105302000
   -4.854937908999   -0.000086984000   7.117678461000
C H
20 16 
direct 
   0.08739285   0.02013612   0.33108612
   0.11772730   0.16548963   0.22328833
   0.04959322   0.10721962   0.03702358
   0.07679384   0.25388170   0.92207002
   0.01098575   0.19135594   0.74215569
   0.92317797   0.74612872   0.07790835
   0.98900524   0.80863660   0.25782964
   0.91259844   0.97985530   0.66890215
   0.88224122   0.83452009   0.77669345
   0.95036622   0.89279989   0.96295297
   0.42325851   0.75389851   0.07797546
   0.48907552   0.69136114   0.25788713
   0.58743516   0.47984152   0.33110938
   0.61776168   0.33450438   0.22329105
   0.54962558   0.39279594   0.03703314
   0.41257204   0.52015449   0.66890182
   0.38227558   0.66551344   0.77672950
   0.45042222   0.60723190   0.96299296
   0.57677325   0.24611842   0.92204737
   0.51092989   0.30863459   0.74212608
   0.13967811   0.06904891   0.47340174
   0.19340024   0.32840058   0.27885695
   0.15162196   0.41681471   0.97861676
   0.03550466   0.30540397   0.65671143
   0.84836054   0.58319169   0.02136184
   0.96450995   0.69457075   0.34327999
   0.86034335   0.93091847   0.52659947
   0.80657578   0.67160500   0.72113241
   0.34844600   0.91684296   0.02145172
   0.46458141   0.80541294   0.34335200
   0.63968885   0.43088800   0.47340648
   0.69340728   0.17157624   0.27882887
   0.36028255   0.56908042   0.52658967
   0.30662320   0.82843775   0.72118546
   0.65157291   0.08316883   0.97857022
   0.53539178   0.19456100   0.65665132
