generated by phonopy
   1.0
    16.1037834420239996    0.0000572620000000    0.1134466280000000
     0.0003326940000000   17.5805393670779999   -0.0003159060000000
    -9.7098758179980003   -0.0001739680000000   14.2353569219999994
C H
 240  192
Direct
  0.0436964250000000  0.0067120400000000  0.1655430600000000
  0.5436964250000000  0.0067120400000000  0.1655430600000000
  0.0436964250000000  0.3400453733333333  0.1655430600000000
  0.5436964250000000  0.3400453733333333  0.1655430600000000
  0.0436964250000000  0.6733787066666667  0.1655430600000000
  0.5436964250000000  0.6733787066666667  0.1655430600000000
  0.0436964250000000  0.0067120400000000  0.6655430600000000
  0.5436964250000000  0.0067120400000000  0.6655430600000000
  0.0436964250000000  0.3400453733333333  0.6655430600000000
  0.5436964250000000  0.3400453733333333  0.6655430600000000
  0.0436964250000000  0.6733787066666667  0.6655430600000000
  0.5436964250000000  0.6733787066666667  0.6655430600000000
  0.0588636500000000  0.0551632100000000  0.1116441650000000
  0.5588636500000000  0.0551632100000000  0.1116441650000000
  0.0588636500000000  0.3884965433333333  0.1116441650000000
  0.5588636500000000  0.3884965433333333  0.1116441650000000
  0.0588636500000000  0.7218298766666666  0.1116441650000000
  0.5588636500000000  0.7218298766666666  0.1116441650000000
  0.0588636500000000  0.0551632100000000  0.6116441650000000
  0.5588636500000000  0.0551632100000000  0.6116441650000000
  0.0588636500000000  0.3884965433333333  0.6116441650000000
  0.5588636500000000  0.3884965433333333  0.6116441650000000
  0.0588636500000000  0.7218298766666666  0.6116441650000000
  0.5588636500000000  0.7218298766666666  0.6116441650000000
  0.0247966100000000  0.0357398733333333  0.0185117900000000
  0.5247966100000000  0.0357398733333333  0.0185117900000000
  0.0247966100000000  0.3690732066666667  0.0185117900000000
  0.5247966100000000  0.3690732066666667  0.0185117900000000
  0.0247966100000000  0.7024065399999999  0.0185117900000000
  0.5247966100000000  0.7024065399999999  0.0185117900000000
  0.0247966100000000  0.0357398733333333  0.5185117900000000
  0.5247966100000000  0.0357398733333333  0.5185117900000000
  0.0247966100000000  0.3690732066666667  0.5185117900000000
  0.5247966100000000  0.3690732066666667  0.5185117900000000
  0.0247966100000000  0.7024065399999999  0.5185117900000000
  0.5247966100000000  0.7024065399999999  0.5185117900000000
  0.0383969200000000  0.0846272333333333  0.4610350100000000
  0.5383969200000001  0.0846272333333333  0.4610350100000000
  0.0383969200000000  0.4179605666666666  0.4610350100000000
  0.5383969200000001  0.4179605666666666  0.4610350100000000
  0.0383969200000000  0.7512939000000000  0.4610350100000000
  0.5383969200000001  0.7512939000000000  0.4610350100000000
  0.0383969200000000  0.0846272333333333  0.9610350100000000
  0.5383969200000001  0.0846272333333333  0.9610350100000000
  0.0383969200000000  0.4179605666666666  0.9610350100000000
  0.5383969200000001  0.4179605666666666  0.9610350100000000
  0.0383969200000000  0.7512939000000000  0.9610350100000000
  0.5383969200000001  0.7512939000000000  0.9610350100000000
  0.0054928750000000  0.0637853133333333  0.3710778450000000
  0.5054928750000000  0.0637853133333333  0.3710778450000000
  0.0054928750000000  0.3971186466666666  0.3710778450000000
  0.5054928750000000  0.3971186466666666  0.3710778450000000
  0.0054928750000000  0.7304519800000000  0.3710778450000000
  0.5054928750000000  0.7304519800000000  0.3710778450000000
  0.0054928750000000  0.0637853133333333  0.8710778450000001
  0.5054928750000000  0.0637853133333333  0.8710778450000001
  0.0054928750000000  0.3971186466666666  0.8710778450000001
  0.5054928750000000  0.3971186466666666  0.8710778450000001
  0.0054928750000000  0.7304519800000000  0.8710778450000001
  0.5054928750000000  0.7304519800000000  0.8710778450000001
  0.4615889850000000  0.2487095733333333  0.0389541750000000
  0.9615889850000000  0.2487095733333333  0.0389541750000000
  0.4615889850000000  0.5820429066666666  0.0389541750000000
  0.9615889850000000  0.5820429066666666  0.0389541750000000
  0.4615889850000000  0.9153762399999998  0.0389541750000000
  0.9615889850000000  0.9153762399999998  0.0389541750000000
  0.4615889850000000  0.2487095733333333  0.5389541750000000
  0.9615889850000000  0.2487095733333333  0.5389541750000000
  0.4615889850000000  0.5820429066666666  0.5389541750000000
  0.9615889850000000  0.5820429066666666  0.5389541750000000
  0.4615889850000000  0.9153762399999998  0.5389541750000000
  0.9615889850000000  0.9153762399999998  0.5389541750000000
  0.4945026200000000  0.2695455333333333  0.1289148200000000
  0.9945026200000000  0.2695455333333333  0.1289148200000000
  0.4945026200000000  0.6028788666666667  0.1289148200000000
  0.9945026200000000  0.6028788666666667  0.1289148200000000
  0.4945026200000000  0.9362121999999999  0.1289148200000000
  0.9945026200000000  0.9362121999999999  0.1289148200000000
  0.4945026200000000  0.2695455333333333  0.6289148200000000
  0.9945026200000000  0.2695455333333333  0.6289148200000000
  0.4945026200000000  0.6028788666666667  0.6289148200000000
  0.9945026200000000  0.6028788666666667  0.6289148200000000
  0.4945026200000000  0.9362121999999999  0.6289148200000000
  0.9945026200000000  0.9362121999999999  0.6289148200000000
  0.4562992200000000  0.3266184333333333  0.3344510750000000
  0.9562992200000000  0.3266184333333333  0.3344510750000000
  0.4562992200000000  0.6599517666666667  0.3344510750000000
  0.9562992200000000  0.6599517666666667  0.3344510750000000
  0.4562992200000000  0.9932851000000000  0.3344510750000000
  0.9562992200000000  0.9932851000000000  0.3344510750000000
  0.4562992200000000  0.3266184333333333  0.8344510750000000
  0.9562992200000000  0.3266184333333333  0.8344510750000000
  0.4562992200000000  0.6599517666666667  0.8344510750000000
  0.9562992200000000  0.6599517666666667  0.8344510750000000
  0.4562992200000000  0.9932851000000000  0.8344510750000000
  0.9562992200000000  0.9932851000000000  0.8344510750000000
  0.4411206100000000  0.2781733633333333  0.3883467250000000
  0.9411206100000000  0.2781733633333333  0.3883467250000000
  0.4411206100000000  0.6115066966666667  0.3883467250000000
  0.9411206100000000  0.6115066966666667  0.3883467250000000
  0.4411206100000000  0.9448400299999999  0.3883467250000000
  0.9411206100000000  0.9448400299999999  0.3883467250000000
  0.4411206100000000  0.2781733633333333  0.8883467250000000
  0.9411206100000000  0.2781733633333333  0.8883467250000000
  0.4411206100000000  0.6115066966666667  0.8883467250000000
  0.9411206100000000  0.6115066966666667  0.8883467250000000
  0.4411206100000000  0.9448400299999999  0.8883467250000000
  0.9411206100000000  0.9448400299999999  0.8883467250000000
  0.4751831100000000  0.2975999633333333  0.4814764850000000
  0.9751831100000000  0.2975999633333333  0.4814764850000000
  0.4751831100000000  0.6309332966666666  0.4814764850000000
  0.9751831100000000  0.6309332966666666  0.4814764850000000
  0.4751831100000000  0.9642666300000000  0.4814764850000000
  0.9751831100000000  0.9642666300000000  0.4814764850000000
  0.4751831100000000  0.2975999633333333  0.9814764850000000
  0.9751831100000000  0.2975999633333333  0.9814764850000000
  0.4751831100000000  0.6309332966666666  0.9814764850000000
  0.9751831100000000  0.6309332966666666  0.9814764850000000
  0.4751831100000000  0.9642666300000000  0.9814764850000000
  0.9751831100000000  0.9642666300000000  0.9814764850000000
  0.2116292550000000  0.2512995033333333  0.0389877300000000
  0.7116292550000000  0.2512995033333333  0.0389877300000000
  0.2116292550000000  0.5846328366666667  0.0389877300000000
  0.7116292550000000  0.5846328366666667  0.0389877300000000
  0.2116292550000000  0.9179661699999999  0.0389877300000000
  0.7116292550000000  0.9179661699999999  0.0389877300000000
  0.2116292550000000  0.2512995033333333  0.5389877300000000
  0.7116292550000000  0.2512995033333333  0.5389877300000000
  0.2116292550000000  0.5846328366666667  0.5389877300000000
  0.7116292550000000  0.5846328366666667  0.5389877300000000
  0.2116292550000000  0.9179661699999999  0.5389877300000000
  0.7116292550000000  0.9179661699999999  0.5389877300000000
  0.2445377600000000  0.2304537133333333  0.1289435650000000
  0.7445377600000000  0.2304537133333333  0.1289435650000000
  0.2445377600000000  0.5637870466666667  0.1289435650000000
  0.7445377600000000  0.5637870466666667  0.1289435650000000
  0.2445377600000000  0.8971203800000001  0.1289435650000000
  0.7445377600000000  0.8971203800000001  0.1289435650000000
  0.2445377600000000  0.2304537133333333  0.6289435650000000
  0.7445377600000000  0.2304537133333333  0.6289435650000000
  0.2445377600000000  0.5637870466666667  0.6289435650000000
  0.7445377600000000  0.5637870466666667  0.6289435650000000
  0.2445377600000000  0.8971203800000001  0.6289435650000000
  0.7445377600000000  0.8971203800000001  0.6289435650000000
  0.2937175800000000  0.1599471733333333  0.1655546900000000
  0.7937175800000000  0.1599471733333333  0.1655546900000000
  0.2937175800000000  0.4932805066666666  0.1655546900000000
  0.7937175800000000  0.4932805066666666  0.1655546900000000
  0.2937175800000000  0.8266138399999999  0.1655546900000000
  0.7937175800000000  0.8266138399999999  0.1655546900000000
  0.2937175800000000  0.1599471733333333  0.6655546900000000
  0.7937175800000000  0.1599471733333333  0.6655546900000000
  0.2937175800000000  0.4932805066666666  0.6655546900000000
  0.7937175800000000  0.4932805066666666  0.6655546900000000
  0.2937175800000000  0.8266138399999999  0.6655546900000000
  0.7937175800000000  0.8266138399999999  0.6655546900000000
  0.3088808400000000  0.1115014600000000  0.1116455250000000
  0.8088808400000000  0.1115014600000000  0.1116455250000000
  0.3088808400000000  0.4448347933333333  0.1116455250000000
  0.8088808400000000  0.4448347933333333  0.1116455250000000
  0.3088808400000000  0.7781681266666666  0.1116455250000000
  0.8088808400000000  0.7781681266666666  0.1116455250000000
  0.3088808400000000  0.1115014600000000  0.6116455250000000
  0.8088808400000000  0.1115014600000000  0.6116455250000000
  0.3088808400000000  0.4448347933333333  0.6116455250000000
  0.8088808400000000  0.4448347933333333  0.6116455250000000
  0.3088808400000000  0.7781681266666666  0.6116455250000000
  0.8088808400000000  0.7781681266666666  0.6116455250000000
  0.2748127900000000  0.1309319800000000  0.0185165700000000
  0.7748127899999999  0.1309319800000000  0.0185165700000000
  0.2748127900000000  0.4642653133333333  0.0185165700000000
  0.7748127899999999  0.4642653133333333  0.0185165700000000
  0.2748127900000000  0.7975986466666667  0.0185165700000000
  0.7748127899999999  0.7975986466666667  0.0185165700000000
  0.2748127900000000  0.1309319800000000  0.5185165700000000
  0.7748127899999999  0.1309319800000000  0.5185165700000000
  0.2748127900000000  0.4642653133333333  0.5185165700000000
  0.7748127899999999  0.4642653133333333  0.5185165700000000
  0.2748127900000000  0.7975986466666667  0.5185165700000000
  0.7748127899999999  0.7975986466666667  0.5185165700000000
  0.2062860200000000  0.1733848300000000  0.3344509100000000
  0.7062860200000000  0.1733848300000000  0.3344509100000000
  0.2062860200000000  0.5067181633333333  0.3344509100000000
  0.7062860200000000  0.5067181633333333  0.3344509100000000
  0.2062860200000000  0.8400514966666666  0.3344509100000000
  0.7062860200000000  0.8400514966666666  0.3344509100000000
  0.2062860200000000  0.1733848300000000  0.8344509099999999
  0.7062860200000000  0.1733848300000000  0.8344509099999999
  0.2062860200000000  0.5067181633333333  0.8344509099999999
  0.7062860200000000  0.5067181633333333  0.8344509099999999
  0.2062860200000000  0.8400514966666666  0.8344509099999999
  0.7062860200000000  0.8400514966666666  0.8344509099999999
  0.1911377900000000  0.2218378133333333  0.3883647500000000
  0.6911377900000000  0.2218378133333333  0.3883647500000000
  0.1911377900000000  0.5551711466666667  0.3883647500000000
  0.6911377900000000  0.5551711466666667  0.3883647500000000
  0.1911377900000000  0.8885044799999999  0.3883647500000000
  0.6911377900000000  0.8885044799999999  0.3883647500000000
  0.1911377900000000  0.2218378133333333  0.8883647500000000
  0.6911377900000000  0.2218378133333333  0.8883647500000000
  0.1911377900000000  0.5551711466666667  0.8883647500000000
  0.6911377900000000  0.5551711466666667  0.8883647500000000
  0.1911377900000000  0.8885044799999999  0.8883647500000000
  0.6911377900000000  0.8885044799999999  0.8883647500000000
  0.2252111100000000  0.2024106333333333  0.4814964800000000
  0.7252111100000000  0.2024106333333333  0.4814964800000000
  0.2252111100000000  0.5357439666666666  0.4814964800000000
  0.7252111100000000  0.5357439666666666  0.4814964800000000
  0.2252111100000000  0.8690772999999999  0.4814964800000000
  0.7252111100000000  0.8690772999999999  0.4814964800000000
  0.2252111100000000  0.2024106333333333  0.9814964800000000
  0.7252111100000000  0.2024106333333333  0.9814964800000000
  0.2252111100000000  0.5357439666666666  0.9814964800000000
  0.7252111100000000  0.5357439666666666  0.9814964800000000
  0.2252111100000000  0.8690772999999999  0.9814964800000000
  0.7252111100000000  0.8690772999999999  0.9814964800000000
  0.2883866250000000  0.0820394733333333  0.4610236850000000
  0.7883866250000000  0.0820394733333333  0.4610236850000000
  0.2883866250000000  0.4153728066666666  0.4610236850000000
  0.7883866250000000  0.4153728066666666  0.4610236850000000
  0.2883866250000000  0.7487061400000000  0.4610236850000000
  0.7883866250000000  0.7487061400000000  0.4610236850000000
  0.2883866250000000  0.0820394733333333  0.9610236850000000
  0.7883866250000000  0.0820394733333333  0.9610236850000000
  0.2883866250000000  0.4153728066666666  0.9610236850000000
  0.7883866250000000  0.4153728066666666  0.9610236850000000
  0.2883866250000000  0.7487061400000000  0.9610236850000000
  0.7883866250000000  0.7487061400000000  0.9610236850000000
  0.2554649450000000  0.1028781966666667  0.3710630400000000
  0.7554649449999999  0.1028781966666667  0.3710630400000000
  0.2554649450000000  0.4362115300000000  0.3710630400000000
  0.7554649449999999  0.4362115300000000  0.3710630400000000
  0.2554649450000000  0.7695448633333333  0.3710630400000000
  0.7554649449999999  0.7695448633333333  0.3710630400000000
  0.2554649450000000  0.1028781966666667  0.8710630400000000
  0.7554649449999999  0.1028781966666667  0.8710630400000000
  0.2554649450000000  0.4362115300000000  0.8710630400000000
  0.7554649449999999  0.4362115300000000  0.8710630400000000
  0.2554649450000000  0.7695448633333333  0.8710630400000000
  0.7554649449999999  0.7695448633333333  0.8710630400000000
  0.0698390550000000  0.0230163033333333  0.2367008700000000
  0.5698390550000000  0.0230163033333333  0.2367008700000000
  0.0698390550000000  0.3563496366666666  0.2367008700000000
  0.5698390550000000  0.3563496366666666  0.2367008700000000
  0.0698390550000000  0.6896829699999999  0.2367008700000000
  0.5698390550000000  0.6896829699999999  0.2367008700000000
  0.0698390550000000  0.0230163033333333  0.7367008700000000
  0.5698390550000000  0.0230163033333333  0.7367008700000000
  0.0698390550000000  0.3563496366666666  0.7367008700000000
  0.5698390550000000  0.3563496366666666  0.7367008700000000
  0.0698390550000000  0.6896829699999999  0.7367008700000000
  0.5698390550000000  0.6896829699999999  0.7367008700000000
  0.0967001200000000  0.1094668600000000  0.1394284750000000
  0.5967001199999999  0.1094668600000000  0.1394284750000000
  0.0967001200000000  0.4428001933333333  0.1394284750000000
  0.5967001199999999  0.4428001933333333  0.1394284750000000
  0.0967001200000000  0.7761335266666666  0.1394284750000000
  0.5967001199999999  0.7761335266666666  0.1394284750000000
  0.0967001200000000  0.1094668600000000  0.6394284750000000
  0.5967001199999999  0.1094668600000000  0.6394284750000000
  0.0967001200000000  0.4428001933333333  0.6394284750000000
  0.5967001199999999  0.4428001933333333  0.6394284750000000
  0.0967001200000000  0.7761335266666666  0.6394284750000000
  0.5967001199999999  0.7761335266666666  0.6394284750000000
  0.0758109800000000  0.1389382366666667  0.4893083800000000
  0.5758109800000000  0.1389382366666667  0.4893083800000000
  0.0758109800000000  0.4722715700000000  0.4893083800000000
  0.5758109800000000  0.4722715700000000  0.4893083800000000
  0.0758109800000000  0.8056049033333333  0.4893083800000000
  0.5758109800000000  0.8056049033333333  0.4893083800000000
  0.0758109800000000  0.1389382366666667  0.9893083800000000
  0.5758109800000000  0.1389382366666667  0.9893083800000000
  0.0758109800000000  0.4722715700000000  0.9893083800000000
  0.5758109800000000  0.4722715700000000  0.9893083800000000
  0.0758109800000000  0.8056049033333333  0.9893083800000000
  0.5758109800000000  0.8056049033333333  0.9893083800000000
  0.0177523300000000  0.1018013233333333  0.3283557150000000
  0.5177523300000000  0.1018013233333333  0.3283557150000000
  0.0177523300000000  0.4351346566666666  0.3283557150000000
  0.5177523300000000  0.4351346566666666  0.3283557150000000
  0.0177523300000000  0.7684679900000000  0.3283557150000000
  0.5177523300000000  0.7684679900000000  0.3283557150000000
  0.0177523300000000  0.1018013233333333  0.8283557150000000
  0.5177523300000000  0.1018013233333333  0.8283557150000000
  0.0177523300000000  0.4351346566666666  0.8283557150000000
  0.5177523300000000  0.4351346566666666  0.8283557150000000
  0.0177523300000000  0.7684679900000000  0.8283557150000000
  0.5177523300000000  0.7684679900000000  0.8283557150000000
  0.4241802700000000  0.1943972300000000  0.0106809200000000
  0.9241802700000000  0.1943972300000000  0.0106809200000000
  0.4241802700000000  0.5277305633333333  0.0106809200000000
  0.9241802700000000  0.5277305633333333  0.0106809200000000
  0.4241802700000000  0.8610638966666666  0.0106809200000000
  0.9241802700000000  0.8610638966666666  0.0106809200000000
  0.4241802700000000  0.1943972300000000  0.5106809200000000
  0.9241802700000000  0.1943972300000000  0.5106809200000000
  0.4241802700000000  0.5277305633333333  0.5106809200000000
  0.9241802700000000  0.5277305633333333  0.5106809200000000
  0.4241802700000000  0.8610638966666666  0.5106809200000000
  0.9241802700000000  0.8610638966666666  0.5106809200000000
  0.4822549750000000  0.2315235833333333  0.1716399950000000
  0.9822549750000000  0.2315235833333333  0.1716399950000000
  0.4822549750000000  0.5648569166666666  0.1716399950000000
  0.9822549750000000  0.5648569166666666  0.1716399950000000
  0.4822549750000000  0.8981902500000000  0.1716399950000000
  0.9822549750000000  0.8981902500000000  0.1716399950000000
  0.4822549750000000  0.2315235833333333  0.6716399950000000
  0.9822549750000000  0.2315235833333333  0.6716399950000000
  0.4822549750000000  0.5648569166666666  0.6716399950000000
  0.9822549750000000  0.5648569166666666  0.6716399950000000
  0.4822549750000000  0.8981902500000000  0.6716399950000000
  0.9822549750000000  0.8981902500000000  0.6716399950000000
  0.4301716750000000  0.3103061566666667  0.2632997350000000
  0.9301716750000000  0.3103061566666667  0.2632997350000000
  0.4301716750000000  0.6436394900000000  0.2632997350000000
  0.9301716750000000  0.6436394900000000  0.2632997350000000
  0.4301716750000000  0.9769728233333332  0.2632997350000000
  0.9301716750000000  0.9769728233333332  0.2632997350000000
  0.4301716750000000  0.3103061566666667  0.7632997349999999
  0.9301716750000000  0.3103061566666667  0.7632997349999999
  0.4301716750000000  0.6436394900000000  0.7632997349999999
  0.9301716750000000  0.6436394900000000  0.7632997349999999
  0.4301716750000000  0.9769728233333332  0.7632997349999999
  0.9301716750000000  0.9769728233333332  0.7632997349999999
  0.4032878900000000  0.2238683333333333  0.3605662050000000
  0.9032878900000000  0.2238683333333333  0.3605662050000000
  0.4032878900000000  0.5572016666666666  0.3605662050000000
  0.9032878900000000  0.5572016666666666  0.3605662050000000
  0.4032878900000000  0.8905350000000000  0.3605662050000000
  0.9032878900000000  0.8905350000000000  0.3605662050000000
  0.4032878900000000  0.2238683333333333  0.8605662050000000
  0.9032878900000000  0.2238683333333333  0.8605662050000000
  0.4032878900000000  0.5572016666666666  0.8605662050000000
  0.9032878900000000  0.5572016666666666  0.8605662050000000
  0.4032878900000000  0.8905350000000000  0.8605662050000000
  0.9032878900000000  0.8905350000000000  0.8605662050000000
  0.1742230000000000  0.3056143200000000  0.0107258600000000
  0.6742230000000000  0.3056143200000000  0.0107258600000000
  0.1742230000000000  0.6389476533333333  0.0107258600000000
  0.6742230000000000  0.6389476533333333  0.0107258600000000
  0.1742230000000000  0.9722809866666666  0.0107258600000000
  0.6742230000000000  0.9722809866666666  0.0107258600000000
  0.1742230000000000  0.3056143200000000  0.5107258600000000
  0.6742230000000000  0.3056143200000000  0.5107258600000000
  0.1742230000000000  0.6389476533333333  0.5107258600000000
  0.6742230000000000  0.6389476533333333  0.5107258600000000
  0.1742230000000000  0.9722809866666666  0.5107258600000000
  0.6742230000000000  0.9722809866666666  0.5107258600000000
  0.2322907050000000  0.2684709800000000  0.1716760000000000
  0.7322907050000000  0.2684709800000000  0.1716760000000000
  0.2322907050000000  0.6018043133333333  0.1716760000000000
  0.7322907050000000  0.6018043133333333  0.1716760000000000
  0.2322907050000000  0.9351376466666667  0.1716760000000000
  0.7322907050000000  0.9351376466666667  0.1716760000000000
  0.2322907050000000  0.2684709800000000  0.6716759999999999
  0.7322907050000000  0.2684709800000000  0.6716759999999999
  0.2322907050000000  0.6018043133333333  0.6716759999999999
  0.7322907050000000  0.6018043133333333  0.6716759999999999
  0.2322907050000000  0.9351376466666667  0.6716759999999999
  0.7322907050000000  0.9351376466666667  0.6716759999999999
  0.3198444250000000  0.1436293333333333  0.2367032400000000
  0.8198444250000000  0.1436293333333333  0.2367032400000000
  0.3198444250000000  0.4769626666666666  0.2367032400000000
  0.8198444250000000  0.4769626666666666  0.2367032400000000
  0.3198444250000000  0.8102959999999999  0.2367032400000000
  0.8198444250000000  0.8102959999999999  0.2367032400000000
  0.3198444250000000  0.1436293333333333  0.7367032400000000
  0.8198444250000000  0.1436293333333333  0.7367032400000000
  0.3198444250000000  0.4769626666666666  0.7367032400000000
  0.8198444250000000  0.4769626666666666  0.7367032400000000
  0.3198444250000000  0.8102959999999999  0.7367032400000000
  0.8198444250000000  0.8102959999999999  0.7367032400000000
  0.3467036400000000  0.0571920800000000  0.1394144350000000
  0.8467036400000000  0.0571920800000000  0.1394144350000000
  0.3467036400000000  0.3905254133333333  0.1394144350000000
  0.8467036400000000  0.3905254133333333  0.1394144350000000
  0.3467036400000000  0.7238587466666666  0.1394144350000000
  0.8467036400000000  0.7238587466666666  0.1394144350000000
  0.3467036400000000  0.0571920800000000  0.6394144349999999
  0.8467036400000000  0.0571920800000000  0.6394144349999999
  0.3467036400000000  0.3905254133333333  0.6394144349999999
  0.8467036400000000  0.3905254133333333  0.6394144349999999
  0.3467036400000000  0.7238587466666666  0.6394144349999999
  0.8467036400000000  0.7238587466666666  0.6394144349999999
  0.1801412750000000  0.1896934733333333  0.2632948350000000
  0.6801412750000000  0.1896934733333333  0.2632948350000000
  0.1801412750000000  0.5230268066666667  0.2632948350000000
  0.6801412750000000  0.5230268066666667  0.2632948350000000
  0.1801412750000000  0.8563601400000000  0.2632948350000000
  0.6801412750000000  0.8563601400000000  0.2632948350000000
  0.1801412750000000  0.1896934733333333  0.7632948349999999
  0.6801412750000000  0.1896934733333333  0.7632948349999999
  0.1801412750000000  0.5230268066666667  0.7632948349999999
  0.6801412750000000  0.5230268066666667  0.7632948349999999
  0.1801412750000000  0.8563601400000000  0.7632948349999999
  0.6801412750000000  0.8563601400000000  0.7632948349999999
  0.1533116000000000  0.2761459166666667  0.3605927300000000
  0.6533116000000000  0.2761459166666667  0.3605927300000000
  0.1533116000000000  0.6094792499999999  0.3605927300000000
  0.6533116000000000  0.6094792499999999  0.3605927300000000
  0.1533116000000000  0.9428125833333333  0.3605927300000000
  0.6533116000000000  0.9428125833333333  0.3605927300000000
  0.1533116000000000  0.2761459166666667  0.8605927300000000
  0.6533116000000000  0.2761459166666667  0.8605927300000000
  0.1533116000000000  0.6094792499999999  0.8605927300000000
  0.6533116000000000  0.6094792499999999  0.8605927300000000
  0.1533116000000000  0.9428125833333333  0.8605927300000000
  0.6533116000000000  0.9428125833333333  0.8605927300000000
  0.3257864550000000  0.0277229433333333  0.4892851100000000
  0.8257864550000000  0.0277229433333333  0.4892851100000000
  0.3257864550000000  0.3610562766666666  0.4892851100000000
  0.8257864550000000  0.3610562766666666  0.4892851100000000
  0.3257864550000000  0.6943896100000000  0.4892851100000000
  0.8257864550000000  0.6943896100000000  0.4892851100000000
  0.3257864550000000  0.0277229433333333  0.9892851100000000
  0.8257864550000000  0.0277229433333333  0.9892851100000000
  0.3257864550000000  0.3610562766666666  0.9892851100000000
  0.8257864550000000  0.3610562766666666  0.9892851100000000
  0.3257864550000000  0.6943896100000000  0.9892851100000000
  0.8257864550000000  0.6943896100000000  0.9892851100000000
  0.2676958900000000  0.0648536666666667  0.3283256600000000
  0.7676958899999999  0.0648536666666667  0.3283256600000000
  0.2676958900000000  0.3981870000000000  0.3283256600000000
  0.7676958899999999  0.3981870000000000  0.3283256600000000
  0.2676958900000000  0.7315203333333333  0.3283256600000000
  0.7676958899999999  0.7315203333333333  0.3283256600000000
  0.2676958900000000  0.0648536666666667  0.8283256600000000
  0.7676958899999999  0.0648536666666667  0.8283256600000000
  0.2676958900000000  0.3981870000000000  0.8283256600000000
  0.7676958899999999  0.3981870000000000  0.8283256600000000
  0.2676958900000000  0.7315203333333333  0.8283256600000000
  0.7676958899999999  0.7315203333333333  0.8283256600000000
