 # LAMMPS timestep 30062
1.000000
      8.00182006        0.00000000        0.00000000
     -0.00000190        5.77134947        0.00000000
     -4.83238208        0.00012039        6.99331488
C H
    20      16
Cartesian
      8.64593398        0.29016500        2.41009000
      9.40752398        1.13396000        1.62396000
      9.78528398        0.75279400        0.31343400
      5.71438198        1.59356000        6.45987000
      6.08459398        1.17587000        5.19521000
      1.68727398        3.17587000        4.72415000
      8.92751398        4.01970000        5.51026000
      0.54794398        3.63857000        6.82080000
      4.61885598        4.47912000        0.67434400
      4.24864898        4.06147000        1.93902000
      5.69162398        5.69019000        4.72054000
      4.92839008        4.84809000        5.50758000
      4.54956898        5.22994000        6.81769000
      8.62111398        4.38870000        0.67149800
      8.25149398        4.80419000        1.93744000
      4.64159098        2.80444000        2.41371000
      5.40480298        1.96232000        1.62668000
      5.78363198        2.34413000        0.31657200
      1.71207398        1.50310000        6.46278000
      2.08169398        1.91856000        5.19683000
      8.34503398        0.61509500        3.41429000
      9.71912398        2.11858000        1.99429000
      6.03215398        2.58198000        6.81573000
      6.69207398        1.83401000        4.55683000
      9.98998398        3.50078000        3.71993000
      8.61593398        5.00432000        5.13991000
     12.30291398        5.46754000        0.31846900
      3.64117398        4.71964000        2.57739000
      5.98913398        5.35606000        3.71815000
      4.61681798        3.86306000        5.13814000
      8.30398398        3.40027000        0.31492700
      7.64472398        4.13881000        2.56933000
      4.34407798        2.47035000        3.41611000
      5.71635298        0.97727900        1.99614000
      2.02919398        0.51467000        6.81937000
      2.68844398        1.25315000        4.56495000
