generated by phonopy
   1.0
    24.0054601800000000    0.0000000000000000    0.0000000000000000
    -0.0000057000000000   17.3140484099999981    0.0000000000000000
   -14.4971462400000011    0.0003611700000000   20.9799446399999994
C H
 540  432
Direct
  0.4295400589874044  0.0167565380089857  0.1148758989289688
  0.7628733923207377  0.0167565380089857  0.1148758989289688
  0.0962067256540711  0.0167565380089857  0.1148758989289688
  0.4295400589874044  0.3500898713423191  0.1148758989289688
  0.7628733923207377  0.3500898713423191  0.1148758989289688
  0.0962067256540711  0.3500898713423191  0.1148758989289688
  0.4295400589874044  0.6834232046756523  0.1148758989289688
  0.7628733923207377  0.6834232046756523  0.1148758989289688
  0.0962067256540711  0.6834232046756523  0.1148758989289688
  0.4295400589874044  0.0167565380089857  0.4482092322623021
  0.7628733923207377  0.0167565380089857  0.4482092322623021
  0.0962067256540711  0.0167565380089857  0.4482092322623021
  0.4295400589874044  0.3500898713423191  0.4482092322623021
  0.7628733923207377  0.3500898713423191  0.4482092322623021
  0.0962067256540711  0.3500898713423191  0.4482092322623021
  0.4295400589874044  0.6834232046756523  0.4482092322623021
  0.7628733923207377  0.6834232046756523  0.4482092322623021
  0.0962067256540711  0.6834232046756523  0.4482092322623021
  0.4295400589874044  0.0167565380089857  0.7815425655956354
  0.7628733923207377  0.0167565380089857  0.7815425655956354
  0.0962067256540711  0.0167565380089857  0.7815425655956354
  0.4295400589874044  0.3500898713423191  0.7815425655956354
  0.7628733923207377  0.3500898713423191  0.7815425655956354
  0.0962067256540711  0.3500898713423191  0.7815425655956354
  0.4295400589874044  0.6834232046756523  0.7815425655956354
  0.7628733923207377  0.6834232046756523  0.7815425655956354
  0.0962067256540711  0.6834232046756523  0.7815425655956354
  0.4386369176925149  0.0654920222386634  0.0774053520095466
  0.7719702510258483  0.0654920222386634  0.0774053520095466
  0.1053035843591816  0.0654920222386634  0.0774053520095466
  0.4386369176925149  0.3988253555719967  0.0774053520095466
  0.7719702510258483  0.3988253555719967  0.0774053520095466
  0.1053035843591816  0.3988253555719967  0.0774053520095466
  0.4386369176925149  0.7321586889053300  0.0774053520095466
  0.7719702510258483  0.7321586889053300  0.0774053520095466
  0.1053035843591816  0.7321586889053300  0.0774053520095466
  0.4386369176925149  0.0654920222386634  0.4107386853428799
  0.7719702510258483  0.0654920222386634  0.4107386853428799
  0.1053035843591816  0.0654920222386634  0.4107386853428799
  0.4386369176925149  0.3988253555719967  0.4107386853428799
  0.7719702510258483  0.3988253555719967  0.4107386853428799
  0.1053035843591816  0.3988253555719967  0.4107386853428799
  0.4386369176925149  0.7321586889053300  0.4107386853428799
  0.7719702510258483  0.7321586889053300  0.4107386853428799
  0.1053035843591816  0.7321586889053300  0.4107386853428799
  0.4386369176925149  0.0654920222386634  0.7440720186762132
  0.7719702510258483  0.0654920222386634  0.7440720186762132
  0.1053035843591816  0.0654920222386634  0.7440720186762132
  0.4386369176925149  0.3988253555719967  0.7440720186762132
  0.7719702510258483  0.3988253555719967  0.7440720186762132
  0.1053035843591816  0.3988253555719967  0.7440720186762132
  0.4386369176925149  0.7321586889053300  0.7440720186762132
  0.7719702510258483  0.7321586889053300  0.7440720186762132
  0.1053035843591816  0.7321586889053300  0.7440720186762132
  0.4166496752807836  0.0434784855860242  0.0149396962374444
  0.7499830086141168  0.0434784855860242  0.0149396962374444
  0.0833163419474501  0.0434784855860242  0.0149396962374444
  0.4166496752807836  0.3768118189193575  0.0149396962374444
  0.7499830086141168  0.3768118189193575  0.0149396962374444
  0.0833163419474501  0.3768118189193575  0.0149396962374444
  0.4166496752807836  0.7101451522526908  0.0149396962374444
  0.7499830086141168  0.7101451522526908  0.0149396962374444
  0.0833163419474501  0.7101451522526908  0.0149396962374444
  0.4166496752807836  0.0434784855860242  0.3482730295707777
  0.7499830086141168  0.0434784855860242  0.3482730295707777
  0.0833163419474501  0.0434784855860242  0.3482730295707777
  0.4166496752807836  0.3768118189193575  0.3482730295707777
  0.7499830086141168  0.3768118189193575  0.3482730295707777
  0.0833163419474501  0.3768118189193575  0.3482730295707777
  0.4166496752807836  0.7101451522526908  0.3482730295707777
  0.7499830086141168  0.7101451522526908  0.3482730295707777
  0.0833163419474501  0.7101451522526908  0.3482730295707777
  0.4166496752807836  0.0434784855860242  0.6816063629041111
  0.7499830086141168  0.0434784855860242  0.6816063629041111
  0.0833163419474501  0.0434784855860242  0.6816063629041111
  0.4166496752807836  0.3768118189193575  0.6816063629041111
  0.7499830086141168  0.3768118189193575  0.6816063629041111
  0.0833163419474501  0.3768118189193575  0.6816063629041111
  0.4166496752807836  0.7101451522526908  0.6816063629041111
  0.7499830086141168  0.7101451522526908  0.6816063629041111
  0.0833163419474501  0.7101451522526908  0.6816063629041111
  0.4239932907731879  0.0920321322620145  0.3079069135236765
  0.7573266241065213  0.0920321322620145  0.3079069135236765
  0.0906599574398546  0.0920321322620145  0.3079069135236765
  0.4239932907731879  0.4253654655953479  0.3079069135236765
  0.7573266241065213  0.4253654655953479  0.3079069135236765
  0.0906599574398546  0.4253654655953479  0.3079069135236765
  0.4239932907731879  0.7586987989286811  0.3079069135236765
  0.7573266241065213  0.7586987989286811  0.3079069135236765
  0.0906599574398546  0.7586987989286811  0.3079069135236765
  0.4239932907731879  0.0920321322620145  0.6412402468570098
  0.7573266241065213  0.0920321322620145  0.6412402468570098
  0.0906599574398546  0.0920321322620145  0.6412402468570098
  0.4239932907731879  0.4253654655953479  0.6412402468570098
  0.7573266241065213  0.4253654655953479  0.6412402468570098
  0.0906599574398546  0.4253654655953479  0.6412402468570098
  0.4239932907731879  0.7586987989286811  0.6412402468570098
  0.7573266241065213  0.7586987989286811  0.6412402468570098
  0.0906599574398546  0.7586987989286811  0.6412402468570098
  0.4239932907731879  0.0920321322620145  0.9745735801903432
  0.7573266241065213  0.0920321322620145  0.9745735801903432
  0.0906599574398546  0.0920321322620145  0.9745735801903432
  0.4239932907731879  0.4253654655953479  0.9745735801903432
  0.7573266241065213  0.4253654655953479  0.9745735801903432
  0.0906599574398546  0.4253654655953479  0.9745735801903432
  0.4239932907731879  0.7586987989286811  0.9745735801903432
  0.7573266241065213  0.7586987989286811  0.9745735801903432
  0.0906599574398546  0.7586987989286811  0.9745735801903432
  0.4030118780193227  0.0679090491463628  0.2476274408319888
  0.7363452113526560  0.0679090491463628  0.2476274408319888
  0.0696785446859893  0.0679090491463628  0.2476274408319888
  0.4030118780193227  0.4012423824796961  0.2476274408319888
  0.7363452113526560  0.4012423824796961  0.2476274408319888
  0.0696785446859893  0.4012423824796961  0.2476274408319888
  0.4030118780193227  0.7345757158130294  0.2476274408319888
  0.7363452113526560  0.7345757158130294  0.2476274408319888
  0.0696785446859893  0.7345757158130294  0.2476274408319888
  0.4030118780193227  0.0679090491463628  0.5809607741653221
  0.7363452113526560  0.0679090491463628  0.5809607741653221
  0.0696785446859893  0.0679090491463628  0.5809607741653221
  0.4030118780193227  0.4012423824796961  0.5809607741653221
  0.7363452113526560  0.4012423824796961  0.5809607741653221
  0.0696785446859893  0.4012423824796961  0.5809607741653221
  0.4030118780193227  0.7345757158130294  0.5809607741653221
  0.7363452113526560  0.7345757158130294  0.5809607741653221
  0.0696785446859893  0.7345757158130294  0.5809607741653221
  0.4030118780193227  0.0679090491463628  0.9142941074986555
  0.7363452113526560  0.0679090491463628  0.9142941074986555
  0.0696785446859893  0.0679090491463628  0.9142941074986555
  0.4030118780193227  0.4012423824796961  0.9142941074986555
  0.7363452113526560  0.4012423824796961  0.9142941074986555
  0.0696785446859893  0.4012423824796961  0.9142941074986555
  0.4030118780193227  0.7345757158130294  0.9142941074986555
  0.7363452113526560  0.7345757158130294  0.9142941074986555
  0.0696785446859893  0.7345757158130294  0.9142941074986555
  0.2062723917917240  0.1834226518545801  0.2251745693834205
  0.5396057251250572  0.1834226518545801  0.2251745693834205
  0.8729390584583907  0.1834226518545801  0.2251745693834205
  0.2062723917917240  0.5167559851879134  0.2251745693834205
  0.5396057251250572  0.5167559851879134  0.2251745693834205
  0.8729390584583907  0.5167559851879134  0.2251745693834205
  0.2062723917917240  0.8500893185212468  0.2251745693834205
  0.5396057251250572  0.8500893185212468  0.2251745693834205
  0.8729390584583907  0.8500893185212468  0.2251745693834205
  0.2062723917917240  0.1834226518545801  0.5585079027167538
  0.5396057251250572  0.1834226518545801  0.5585079027167538
  0.8729390584583907  0.1834226518545801  0.5585079027167538
  0.2062723917917240  0.5167559851879134  0.5585079027167538
  0.5396057251250572  0.5167559851879134  0.5585079027167538
  0.8729390584583907  0.5167559851879134  0.5585079027167538
  0.2062723917917240  0.8500893185212468  0.5585079027167538
  0.5396057251250572  0.8500893185212468  0.5585079027167538
  0.8729390584583907  0.8500893185212468  0.5585079027167538
  0.2062723917917240  0.1834226518545801  0.8918412360500870
  0.5396057251250572  0.1834226518545801  0.8918412360500870
  0.8729390584583907  0.1834226518545801  0.8918412360500870
  0.2062723917917240  0.5167559851879134  0.8918412360500870
  0.5396057251250572  0.5167559851879134  0.8918412360500870
  0.8729390584583907  0.5167559851879134  0.8918412360500870
  0.2062723917917240  0.8500893185212468  0.8918412360500870
  0.5396057251250572  0.8500893185212468  0.8918412360500870
  0.8729390584583907  0.8500893185212468  0.8918412360500870
  0.5305087279340721  0.2321585943173209  0.2626441630114806
  0.8638420612674054  0.2321585943173209  0.2626441630114806
  0.1971753946007386  0.2321585943173209  0.2626441630114806
  0.5305087279340721  0.5654919276506543  0.2626441630114806
  0.8638420612674054  0.5654919276506543  0.2626441630114806
  0.1971753946007386  0.5654919276506543  0.2626441630114806
  0.5305087279340721  0.8988252609839875  0.2626441630114806
  0.8638420612674054  0.8988252609839875  0.2626441630114806
  0.1971753946007386  0.8988252609839875  0.2626441630114806
  0.5305087279340721  0.2321585943173209  0.5959774963448139
  0.8638420612674054  0.2321585943173209  0.5959774963448139
  0.1971753946007386  0.2321585943173209  0.5959774963448139
  0.5305087279340721  0.5654919276506543  0.5959774963448139
  0.8638420612674054  0.5654919276506543  0.5959774963448139
  0.1971753946007386  0.5654919276506543  0.5959774963448139
  0.5305087279340721  0.8988252609839875  0.5959774963448139
  0.8638420612674054  0.8988252609839875  0.5959774963448139
  0.1971753946007386  0.8988252609839875  0.5959774963448139
  0.5305087279340721  0.2321585943173209  0.9293108296781473
  0.8638420612674054  0.2321585943173209  0.9293108296781473
  0.1971753946007386  0.2321585943173209  0.9293108296781473
  0.5305087279340721  0.5654919276506543  0.9293108296781473
  0.8638420612674054  0.5654919276506543  0.9293108296781473
  0.1971753946007386  0.5654919276506543  0.9293108296781473
  0.5305087279340721  0.8988252609839875  0.9293108296781473
  0.8638420612674054  0.8988252609839875  0.9293108296781473
  0.1971753946007386  0.8988252609839875  0.9293108296781473
  0.2191634486213929  0.2101445308275963  0.3251104860875362
  0.5524967819547262  0.2101445308275963  0.3251104860875362
  0.8858301152880595  0.2101445308275963  0.3251104860875362
  0.2191634486213929  0.5434778641609297  0.3251104860875362
  0.5524967819547262  0.5434778641609297  0.3251104860875362
  0.8858301152880595  0.5434778641609297  0.3251104860875362
  0.2191634486213929  0.8768111974942630  0.3251104860875362
  0.5524967819547262  0.8768111974942630  0.3251104860875362
  0.8858301152880595  0.8768111974942630  0.3251104860875362
  0.2191634486213929  0.2101445308275963  0.6584438194208695
  0.5524967819547262  0.2101445308275963  0.6584438194208695
  0.8858301152880595  0.2101445308275963  0.6584438194208695
  0.2191634486213929  0.5434778641609297  0.6584438194208695
  0.5524967819547262  0.5434778641609297  0.6584438194208695
  0.8858301152880595  0.5434778641609297  0.6584438194208695
  0.2191634486213929  0.8768111974942630  0.6584438194208695
  0.5524967819547262  0.8768111974942630  0.6584438194208695
  0.8858301152880595  0.8768111974942630  0.6584438194208695
  0.2191634486213929  0.2101445308275963  0.9917771527542030
  0.5524967819547262  0.2101445308275963  0.9917771527542030
  0.8858301152880595  0.2101445308275963  0.9917771527542030
  0.2191634486213929  0.5434778641609297  0.9917771527542030
  0.5524967819547262  0.5434778641609297  0.9917771527542030
  0.8858301152880595  0.5434778641609297  0.9917771527542030
  0.2191634486213929  0.8768111974942630  0.9917771527542030
  0.5524967819547262  0.8768111974942630  0.9917771527542030
  0.8858301152880595  0.8768111974942630  0.9917771527542030
  0.2118196970560230  0.2586979246617405  0.0321423155099422
  0.5451530303893564  0.2586979246617405  0.0321423155099422
  0.8784863637226896  0.2586979246617405  0.0321423155099422
  0.2118196970560230  0.5920312579950737  0.0321423155099422
  0.5451530303893564  0.5920312579950737  0.0321423155099422
  0.8784863637226896  0.5920312579950737  0.0321423155099422
  0.2118196970560230  0.9253645913284070  0.0321423155099422
  0.5451530303893564  0.9253645913284070  0.0321423155099422
  0.8784863637226896  0.9253645913284070  0.0321423155099422
  0.2118196970560230  0.2586979246617405  0.3654756488432754
  0.5451530303893564  0.2586979246617405  0.3654756488432754
  0.8784863637226896  0.2586979246617405  0.3654756488432754
  0.2118196970560230  0.5920312579950737  0.3654756488432754
  0.5451530303893564  0.5920312579950737  0.3654756488432754
  0.8784863637226896  0.5920312579950737  0.3654756488432754
  0.2118196970560230  0.9253645913284070  0.3654756488432754
  0.5451530303893564  0.9253645913284070  0.3654756488432754
  0.8784863637226896  0.9253645913284070  0.3654756488432754
  0.2118196970560230  0.2586979246617405  0.6988089821766088
  0.5451530303893564  0.2586979246617405  0.6988089821766088
  0.8784863637226896  0.2586979246617405  0.6988089821766088
  0.2118196970560230  0.5920312579950737  0.6988089821766088
  0.5451530303893564  0.5920312579950737  0.6988089821766088
  0.8784863637226896  0.5920312579950737  0.6988089821766088
  0.2118196970560230  0.9253645913284070  0.6988089821766088
  0.5451530303893564  0.9253645913284070  0.6988089821766088
  0.8784863637226896  0.9253645913284070  0.6988089821766088
  0.2328017672019563  0.2345746369405765  0.0924225508347195
  0.5661351005352896  0.2345746369405765  0.0924225508347195
  0.8994684338686230  0.2345746369405765  0.0924225508347195
  0.2328017672019563  0.5679079702739098  0.0924225508347195
  0.5661351005352896  0.5679079702739098  0.0924225508347195
  0.8994684338686230  0.5679079702739098  0.0924225508347195
  0.2328017672019563  0.9012413036072431  0.0924225508347195
  0.5661351005352896  0.9012413036072431  0.0924225508347195
  0.8994684338686230  0.9012413036072431  0.0924225508347195
  0.2328017672019563  0.2345746369405765  0.4257558841680528
  0.5661351005352896  0.2345746369405765  0.4257558841680528
  0.8994684338686230  0.2345746369405765  0.4257558841680528
  0.2328017672019563  0.5679079702739098  0.4257558841680528
  0.5661351005352896  0.5679079702739098  0.4257558841680528
  0.8994684338686230  0.5679079702739098  0.4257558841680528
  0.2328017672019563  0.9012413036072431  0.4257558841680528
  0.5661351005352896  0.9012413036072431  0.4257558841680528
  0.8994684338686230  0.9012413036072431  0.4257558841680528
  0.2328017672019563  0.2345746369405765  0.7590892175013861
  0.5661351005352896  0.2345746369405765  0.7590892175013861
  0.8994684338686230  0.2345746369405765  0.7590892175013861
  0.2328017672019563  0.5679079702739098  0.7590892175013861
  0.5661351005352896  0.5679079702739098  0.7590892175013861
  0.8994684338686230  0.5679079702739098  0.7590892175013861
  0.2328017672019563  0.9012413036072431  0.7590892175013861
  0.5661351005352896  0.9012413036072431  0.7590892175013861
  0.8994684338686230  0.9012413036072431  0.7590892175013861
  0.3729784781139645  0.3286411474141748  0.2250025002925842
  0.7063118114472978  0.3286411474141748  0.2250025002925842
  0.0396451447806312  0.3286411474141748  0.2250025002925842
  0.3729784781139645  0.6619744807475081  0.2250025002925842
  0.7063118114472978  0.6619744807475081  0.2250025002925842
  0.0396451447806312  0.6619744807475081  0.2250025002925842
  0.3729784781139645  0.9953078140808415  0.2250025002925842
  0.7063118114472978  0.9953078140808415  0.2250025002925842
  0.0396451447806312  0.9953078140808415  0.2250025002925842
  0.3729784781139645  0.3286411474141748  0.5583358336259174
  0.7063118114472978  0.3286411474141748  0.5583358336259174
  0.0396451447806312  0.3286411474141748  0.5583358336259174
  0.3729784781139645  0.6619744807475081  0.5583358336259174
  0.7063118114472978  0.6619744807475081  0.5583358336259174
  0.0396451447806312  0.6619744807475081  0.5583358336259174
  0.3729784781139645  0.9953078140808415  0.5583358336259174
  0.7063118114472978  0.9953078140808415  0.5583358336259174
  0.0396451447806312  0.9953078140808415  0.5583358336259174
  0.3729784781139645  0.3286411474141748  0.8916691669592508
  0.7063118114472978  0.3286411474141748  0.8916691669592508
  0.0396451447806312  0.3286411474141748  0.8916691669592508
  0.3729784781139645  0.6619744807475081  0.8916691669592508
  0.7063118114472978  0.6619744807475081  0.8916691669592508
  0.0396451447806312  0.6619744807475081  0.8916691669592508
  0.3729784781139645  0.9953078140808415  0.8916691669592508
  0.7063118114472978  0.9953078140808415  0.8916691669592508
  0.0396451447806312  0.9953078140808415  0.8916691669592508
  0.3638393336438879  0.2800035596610578  0.2625164219689762
  0.6971726669772212  0.2800035596610578  0.2625164219689762
  0.0305060003105546  0.2800035596610578  0.2625164219689762
  0.3638393336438879  0.6133368929943911  0.2625164219689762
  0.6971726669772212  0.6133368929943911  0.2625164219689762
  0.0305060003105546  0.6133368929943911  0.2625164219689762
  0.3638393336438879  0.9466702263277244  0.2625164219689762
  0.6971726669772212  0.9466702263277244  0.2625164219689762
  0.0305060003105546  0.9466702263277244  0.2625164219689762
  0.3638393336438879  0.2800035596610578  0.5958497553023094
  0.6971726669772212  0.2800035596610578  0.5958497553023094
  0.0305060003105546  0.2800035596610578  0.5958497553023094
  0.3638393336438879  0.6133368929943911  0.5958497553023094
  0.6971726669772212  0.6133368929943911  0.5958497553023094
  0.0305060003105546  0.6133368929943911  0.5958497553023094
  0.3638393336438879  0.9466702263277244  0.5958497553023094
  0.6971726669772212  0.9466702263277244  0.5958497553023094
  0.0305060003105546  0.9466702263277244  0.5958497553023094
  0.3638393336438879  0.2800035596610578  0.9291830886356429
  0.6971726669772212  0.2800035596610578  0.9291830886356429
  0.0305060003105546  0.2800035596610578  0.9291830886356429
  0.3638393336438879  0.6133368929943911  0.9291830886356429
  0.6971726669772212  0.6133368929943911  0.9291830886356429
  0.0305060003105546  0.6133368929943911  0.9291830886356429
  0.3638393336438879  0.9466702263277244  0.9291830886356429
  0.6971726669772212  0.9466702263277244  0.9291830886356429
  0.0305060003105546  0.9466702263277244  0.9291830886356429
  0.3857703990086555  0.3020566022192627  0.3249622492807493
  0.7191037323419887  0.3020566022192627  0.3249622492807493
  0.0524370656753219  0.3020566022192627  0.3249622492807493
  0.3857703990086555  0.6353899355525959  0.3249622492807493
  0.7191037323419887  0.6353899355525959  0.3249622492807493
  0.0524370656753219  0.6353899355525959  0.3249622492807493
  0.3857703990086555  0.9687232688859293  0.3249622492807493
  0.7191037323419887  0.9687232688859293  0.3249622492807493
  0.0524370656753219  0.9687232688859293  0.3249622492807493
  0.3857703990086555  0.3020566022192627  0.6582955826140826
  0.7191037323419887  0.3020566022192627  0.6582955826140826
  0.0524370656753219  0.3020566022192627  0.6582955826140826
  0.3857703990086555  0.6353899355525959  0.6582955826140826
  0.7191037323419887  0.6353899355525959  0.6582955826140826
  0.0524370656753219  0.6353899355525959  0.6582955826140826
  0.3857703990086555  0.9687232688859293  0.6582955826140826
  0.7191037323419887  0.9687232688859293  0.6582955826140826
  0.0524370656753219  0.9687232688859293  0.6582955826140826
  0.3857703990086555  0.3020566022192627  0.9916289159474159
  0.7191037323419887  0.3020566022192627  0.9916289159474159
  0.0524370656753219  0.3020566022192627  0.9916289159474159
  0.3857703990086555  0.6353899355525959  0.9916289159474159
  0.7191037323419887  0.6353899355525959  0.9916289159474159
  0.0524370656753219  0.6353899355525959  0.9916289159474159
  0.3857703990086555  0.9687232688859293  0.9916289159474159
  0.7191037323419887  0.9687232688859293  0.9916289159474159
  0.0524370656753219  0.9687232688859293  0.9916289159474159
  0.3784605926534276  0.2534755786878288  0.0320066621491333
  0.7117939259867608  0.2534755786878288  0.0320066621491333
  0.0451272593200942  0.2534755786878288  0.0320066621491333
  0.3784605926534276  0.5868089120211621  0.0320066621491333
  0.7117939259867608  0.5868089120211621  0.0320066621491333
  0.0451272593200942  0.5868089120211621  0.0320066621491333
  0.3784605926534276  0.9201422453544954  0.0320066621491333
  0.7117939259867608  0.9201422453544954  0.0320066621491333
  0.0451272593200942  0.9201422453544954  0.0320066621491333
  0.3784605926534276  0.2534755786878288  0.3653399954824666
  0.7117939259867608  0.2534755786878288  0.3653399954824666
  0.0451272593200942  0.2534755786878288  0.3653399954824666
  0.3784605926534276  0.5868089120211621  0.3653399954824666
  0.7117939259867608  0.5868089120211621  0.3653399954824666
  0.0451272593200942  0.5868089120211621  0.3653399954824666
  0.3784605926534276  0.9201422453544954  0.3653399954824666
  0.7117939259867608  0.9201422453544954  0.3653399954824666
  0.0451272593200942  0.9201422453544954  0.3653399954824666
  0.3784605926534276  0.2534755786878288  0.6986733288157999
  0.7117939259867608  0.2534755786878288  0.6986733288157999
  0.0451272593200942  0.2534755786878288  0.6986733288157999
  0.3784605926534276  0.5868089120211621  0.6986733288157999
  0.7117939259867608  0.5868089120211621  0.6986733288157999
  0.0451272593200942  0.5868089120211621  0.6986733288157999
  0.3784605926534276  0.9201422453544954  0.6986733288157999
  0.7117939259867608  0.9201422453544954  0.6986733288157999
  0.0451272593200942  0.9201422453544954  0.6986733288157999
  0.3995035689657183  0.2774715960810366  0.0923472408171235
  0.7328369022990515  0.2774715960810366  0.0923472408171235
  0.0661702356323848  0.2774715960810366  0.0923472408171235
  0.3995035689657183  0.6108049294143699  0.0923472408171235
  0.7328369022990515  0.6108049294143699  0.0923472408171235
  0.0661702356323848  0.6108049294143699  0.0923472408171235
  0.3995035689657183  0.9441382627477033  0.0923472408171235
  0.7328369022990515  0.9441382627477033  0.0923472408171235
  0.0661702356323848  0.9441382627477033  0.0923472408171235
  0.3995035689657183  0.2774715960810366  0.4256805741504568
  0.7328369022990515  0.2774715960810366  0.4256805741504568
  0.0661702356323848  0.2774715960810366  0.4256805741504568
  0.3995035689657183  0.6108049294143699  0.4256805741504568
  0.7328369022990515  0.6108049294143699  0.4256805741504568
  0.0661702356323848  0.6108049294143699  0.4256805741504568
  0.3995035689657183  0.9441382627477033  0.4256805741504568
  0.7328369022990515  0.9441382627477033  0.4256805741504568
  0.0661702356323848  0.9441382627477033  0.4256805741504568
  0.3995035689657183  0.2774715960810366  0.7590139074837901
  0.7328369022990515  0.2774715960810366  0.7590139074837901
  0.0661702356323848  0.2774715960810366  0.7590139074837901
  0.3995035689657183  0.6108049294143699  0.7590139074837901
  0.7328369022990515  0.6108049294143699  0.7590139074837901
  0.0661702356323848  0.6108049294143699  0.7590139074837901
  0.3995035689657183  0.9441382627477033  0.7590139074837901
  0.7328369022990515  0.9441382627477033  0.7590139074837901
  0.0661702356323848  0.9441382627477033  0.7590139074837901
  0.2628346210792338  0.1619724273344134  0.1150484446654860
  0.5961679544125671  0.1619724273344134  0.1150484446654860
  0.9295012877459004  0.1619724273344134  0.1150484446654860
  0.2628346210792338  0.4953057606677467  0.1150484446654860
  0.5961679544125671  0.4953057606677467  0.1150484446654860
  0.9295012877459004  0.4953057606677467  0.1150484446654860
  0.2628346210792338  0.8286390940010799  0.1150484446654860
  0.5961679544125671  0.8286390940010799  0.1150484446654860
  0.9295012877459004  0.8286390940010799  0.1150484446654860
  0.2628346210792338  0.1619724273344134  0.4483817779988193
  0.5961679544125671  0.1619724273344134  0.4483817779988193
  0.9295012877459004  0.1619724273344134  0.4483817779988193
  0.2628346210792338  0.4953057606677467  0.4483817779988193
  0.5961679544125671  0.4953057606677467  0.4483817779988193
  0.9295012877459004  0.4953057606677467  0.4483817779988193
  0.2628346210792338  0.8286390940010799  0.4483817779988193
  0.5961679544125671  0.8286390940010799  0.4483817779988193
  0.9295012877459004  0.8286390940010799  0.4483817779988193
  0.2628346210792338  0.1619724273344134  0.7817151113321527
  0.5961679544125671  0.1619724273344134  0.7817151113321527
  0.9295012877459004  0.1619724273344134  0.7817151113321527
  0.2628346210792338  0.4953057606677467  0.7817151113321527
  0.5961679544125671  0.4953057606677467  0.7817151113321527
  0.9295012877459004  0.4953057606677467  0.7817151113321527
  0.2628346210792338  0.8286390940010799  0.7817151113321527
  0.5961679544125671  0.8286390940010799  0.7817151113321527
  0.9295012877459004  0.8286390940010799  0.7817151113321527
  0.2719731180106293  0.1133352495162731  0.0775349996347750
  0.6053064513439625  0.1133352495162731  0.0775349996347750
  0.9386397846772959  0.1133352495162731  0.0775349996347750
  0.2719731180106293  0.4466685828496065  0.0775349996347750
  0.6053064513439625  0.4466685828496065  0.0775349996347750
  0.9386397846772959  0.4466685828496065  0.0775349996347750
  0.2719731180106293  0.7800019161829398  0.0775349996347750
  0.6053064513439625  0.7800019161829398  0.0775349996347750
  0.9386397846772959  0.7800019161829398  0.0775349996347750
  0.2719731180106293  0.1133352495162731  0.4108683329681083
  0.6053064513439625  0.1133352495162731  0.4108683329681083
  0.9386397846772959  0.1133352495162731  0.4108683329681083
  0.2719731180106293  0.4466685828496065  0.4108683329681083
  0.6053064513439625  0.4466685828496065  0.4108683329681083
  0.9386397846772959  0.4466685828496065  0.4108683329681083
  0.2719731180106293  0.7800019161829398  0.4108683329681083
  0.6053064513439625  0.7800019161829398  0.4108683329681083
  0.9386397846772959  0.7800019161829398  0.4108683329681083
  0.2719731180106293  0.1133352495162731  0.7442016663014416
  0.6053064513439625  0.1133352495162731  0.7442016663014416
  0.9386397846772959  0.1133352495162731  0.7442016663014416
  0.2719731180106293  0.4466685828496065  0.7442016663014416
  0.6053064513439625  0.4466685828496065  0.7442016663014416
  0.9386397846772959  0.4466685828496065  0.7442016663014416
  0.2719731180106293  0.7800019161829398  0.7442016663014416
  0.6053064513439625  0.7800019161829398  0.7442016663014416
  0.9386397846772959  0.7800019161829398  0.7442016663014416
  0.2500424497807937  0.1353885870421453  0.0150892676521381
  0.5833757831141271  0.1353885870421453  0.0150892676521381
  0.9167091164474603  0.1353885870421453  0.0150892676521381
  0.2500424497807937  0.4687219203754786  0.0150892676521381
  0.5833757831141271  0.4687219203754786  0.0150892676521381
  0.9167091164474603  0.4687219203754786  0.0150892676521381
  0.2500424497807937  0.8020552537088119  0.0150892676521381
  0.5833757831141271  0.8020552537088119  0.0150892676521381
  0.9167091164474603  0.8020552537088119  0.0150892676521381
  0.2500424497807937  0.1353885870421453  0.3484226009854714
  0.5833757831141271  0.1353885870421453  0.3484226009854714
  0.9167091164474603  0.1353885870421453  0.3484226009854714
  0.2500424497807937  0.4687219203754786  0.3484226009854714
  0.5833757831141271  0.4687219203754786  0.3484226009854714
  0.9167091164474603  0.4687219203754786  0.3484226009854714
  0.2500424497807937  0.8020552537088119  0.3484226009854714
  0.5833757831141271  0.8020552537088119  0.3484226009854714
  0.9167091164474603  0.8020552537088119  0.3484226009854714
  0.2500424497807937  0.1353885870421453  0.6817559343188047
  0.5833757831141271  0.1353885870421453  0.6817559343188047
  0.9167091164474603  0.1353885870421453  0.6817559343188047
  0.2500424497807937  0.4687219203754786  0.6817559343188047
  0.5833757831141271  0.4687219203754786  0.6817559343188047
  0.9167091164474603  0.4687219203754786  0.6817559343188047
  0.2500424497807937  0.8020552537088119  0.6817559343188047
  0.5833757831141271  0.8020552537088119  0.6817559343188047
  0.9167091164474603  0.8020552537088119  0.6817559343188047
  0.2573521520838287  0.0868074703023403  0.3080456174168437