 # File generated with Atomsk by sandro_w on 2019-10-15 10:21:57
1.000000
      7.99887200        0.00000000        0.00000000
     -0.00002900        5.88435300        0.00000000
     -4.72563100        0.00004300        7.22748700
C H
    20      16
Cartesian
     -0.81694200        0.17888100        2.32881600
     -0.09002000        1.02421400        1.51879100
      0.24866500        0.65165300        0.19291000
     -3.74032900        1.50158700        6.55742600
     -3.41351300        1.10632200        5.27844300
      0.17377400        3.12107000        4.79942600
     -0.55315100        3.96641200        5.60943900
     -0.89183500        3.59386900        6.93532400
      3.09715500        4.44372500        0.57079700
      2.77034000        4.04847700        1.84978500
      4.17319600        5.72433500        4.79942800
      3.44627400        4.87900200        5.60945300
      3.10758900        5.25156300        6.93533300
      7.09658300        4.40162900        0.57081800
     -1.22910600        4.79689400        1.84980100
      3.18248000        2.78214600        2.32881800
      3.90940500        1.93680400        1.51880400
      4.24808900        2.30934700        0.19291900
      0.25909900        1.45949100        6.55744700
      0.58591400        1.85473900        5.27845800
     -1.07820900        0.48798400        3.34044900
      0.23518200        2.00166100        1.87898200
     -3.42829800        2.47718300        6.93434000
     -2.83384300        1.77202500        4.63715600
      0.43504000        3.43015900        3.78778800
     -0.87835500        4.94385300        5.24923600
      2.78511800        5.41931400        0.19386800
      2.19066800        4.71418600        2.49106300
      4.43446300        5.41523300        3.78779500
      3.12107200        3.90155600        5.24926200
      6.78455200        3.42603300        0.19390300
      6.19009700        4.13119200        2.49108800
      2.92121400        2.47305700        3.34045600
      4.23460900        0.95936300        1.87900800
      0.57113600        0.48390200        6.93437500
      1.16558600        1.18903000        4.63718100
