generated by phonopy
   1.0
    23.9966160000000031    0.0000000000000000    0.0000000000000000
    -0.0000870000000000   17.6530589999999989    0.0000000000000000
   -14.1768929999999997    0.0001290000000000   21.6824610000000000
C H
 540  432
Direct
  0.0294097904091989  0.0101323597620056  0.1074055200652730
  0.3627431237425321  0.0101323597620056  0.1074055200652730
  0.6960764570758655  0.0101323597620056  0.1074055200652730
  0.0294097904091989  0.3434656930953389  0.1074055200652730
  0.3627431237425321  0.3434656930953389  0.1074055200652730
  0.6960764570758655  0.3434656930953389  0.1074055200652730
  0.0294097904091989  0.6767990264286723  0.1074055200652730
  0.3627431237425321  0.6767990264286723  0.1074055200652730
  0.6960764570758655  0.6767990264286723  0.1074055200652730
  0.0294097904091989  0.0101323597620056  0.4407388533986064
  0.3627431237425321  0.0101323597620056  0.4407388533986064
  0.6960764570758655  0.0101323597620056  0.4407388533986064
  0.0294097904091989  0.3434656930953389  0.4407388533986064
  0.3627431237425321  0.3434656930953389  0.4407388533986064
  0.6960764570758655  0.3434656930953389  0.4407388533986064
  0.0294097904091989  0.6767990264286723  0.4407388533986064
  0.3627431237425321  0.6767990264286723  0.4407388533986064
  0.6960764570758655  0.6767990264286723  0.4407388533986064
  0.0294097904091989  0.0101323597620056  0.7740721867319397
  0.3627431237425321  0.0101323597620056  0.7740721867319397
  0.6960764570758655  0.0101323597620056  0.7740721867319397
  0.0294097904091989  0.3434656930953389  0.7740721867319397
  0.3627431237425321  0.3434656930953389  0.7740721867319397
  0.6960764570758655  0.3434656930953389  0.7740721867319397
  0.0294097904091989  0.6767990264286723  0.7740721867319397
  0.3627431237425321  0.6767990264286723  0.7740721867319397
  0.6960764570758655  0.6767990264286723  0.7740721867319397
  0.0376317079697321  0.0580185544011979  0.0700469840577599
  0.3709650413030654  0.0580185544011979  0.0700469840577599
  0.7042983746363987  0.0580185544011979  0.0700469840577599
  0.0376317079697321  0.3913518877345312  0.0700469840577599
  0.3709650413030654  0.3913518877345312  0.0700469840577599
  0.7042983746363987  0.3913518877345312  0.0700469840577599
  0.0376317079697321  0.7246852210678646  0.0700469840577599
  0.3709650413030654  0.7246852210678646  0.0700469840577599
  0.7042983746363987  0.7246852210678646  0.0700469840577599
  0.0376317079697321  0.0580185544011979  0.4033803173910931
  0.3709650413030654  0.0580185544011979  0.4033803173910931
  0.7042983746363987  0.0580185544011979  0.4033803173910931
  0.0376317079697321  0.3913518877345312  0.4033803173910931
  0.3709650413030654  0.3913518877345312  0.4033803173910931
  0.7042983746363987  0.3913518877345312  0.4033803173910931
  0.0376317079697321  0.7246852210678646  0.4033803173910931
  0.3709650413030654  0.7246852210678646  0.4033803173910931
  0.7042983746363987  0.7246852210678646  0.4033803173910931
  0.0376317079697321  0.0580185544011979  0.7367136507244265
  0.3709650413030654  0.0580185544011979  0.7367136507244265
  0.7042983746363987  0.0580185544011979  0.7367136507244265
  0.0376317079697321  0.3913518877345312  0.7367136507244265
  0.3709650413030654  0.3913518877345312  0.7367136507244265
  0.7042983746363987  0.3913518877345312  0.7367136507244265
  0.0376317079697321  0.7246852210678646  0.7367136507244265
  0.3709650413030654  0.7246852210678646  0.7367136507244265
  0.7042983746363987  0.7246852210678646  0.7367136507244265
  0.0156189013018820  0.0369143870351417  0.0088970527838145
  0.3489522346352153  0.0369143870351417  0.0088970527838145
  0.6822855679685487  0.0369143870351417  0.0088970527838145
  0.0156189013018820  0.3702477203684750  0.0088970527838145
  0.3489522346352153  0.3702477203684750  0.0088970527838145
  0.6822855679685487  0.3702477203684750  0.0088970527838145
  0.0156189013018820  0.7035810537018082  0.0088970527838145
  0.3489522346352153  0.7035810537018082  0.0088970527838145
  0.6822855679685487  0.7035810537018082  0.0088970527838145
  0.0156189013018820  0.0369143870351417  0.3422303861171478
  0.3489522346352153  0.0369143870351417  0.3422303861171478
  0.6822855679685487  0.0369143870351417  0.3422303861171478
  0.0156189013018820  0.3702477203684750  0.3422303861171478
  0.3489522346352153  0.3702477203684750  0.3422303861171478
  0.6822855679685487  0.3702477203684750  0.3422303861171478
  0.0156189013018820  0.7035810537018082  0.3422303861171478
  0.3489522346352153  0.7035810537018082  0.3422303861171478
  0.6822855679685487  0.7035810537018082  0.3422303861171478
  0.0156189013018820  0.0369143870351417  0.6755637194504811
  0.3489522346352153  0.0369143870351417  0.6755637194504811
  0.6822855679685487  0.0369143870351417  0.6755637194504811
  0.0156189013018820  0.3702477203684750  0.6755637194504811
  0.3489522346352153  0.3702477203684750  0.6755637194504811
  0.6822855679685487  0.3702477203684750  0.6755637194504811
  0.0156189013018820  0.7035810537018082  0.6755637194504811
  0.3489522346352153  0.7035810537018082  0.6755637194504811
  0.6822855679685487  0.7035810537018082  0.6755637194504811
  0.0228030362840682  0.0850587983948871  0.3024299686276387
  0.3561363696174015  0.0850587983948871  0.3024299686276387
  0.6894697029507348  0.0850587983948871  0.3024299686276387
  0.0228030362840682  0.4183921317282204  0.3024299686276387
  0.3561363696174015  0.4183921317282204  0.3024299686276387
  0.6894697029507348  0.4183921317282204  0.3024299686276387
  0.0228030362840682  0.7517254650615537  0.3024299686276387
  0.3561363696174015  0.7517254650615537  0.3024299686276387
  0.6894697029507348  0.7517254650615537  0.3024299686276387
  0.0228030362840682  0.0850587983948871  0.6357633019609721
  0.3561363696174015  0.0850587983948871  0.6357633019609721
  0.6894697029507348  0.0850587983948871  0.6357633019609721
  0.0228030362840682  0.4183921317282204  0.6357633019609721
  0.3561363696174015  0.4183921317282204  0.6357633019609721
  0.6894697029507348  0.4183921317282204  0.6357633019609721
  0.0228030362840682  0.7517254650615537  0.6357633019609721
  0.3561363696174015  0.7517254650615537  0.6357633019609721
  0.6894697029507348  0.7517254650615537  0.6357633019609721
  0.0228030362840682  0.0850587983948871  0.9690966352943053
  0.3561363696174015  0.0850587983948871  0.9690966352943053
  0.6894697029507348  0.0850587983948871  0.9690966352943053
  0.0228030362840682  0.4183921317282204  0.9690966352943053
  0.3561363696174015  0.4183921317282204  0.9690966352943053
  0.6894697029507348  0.4183921317282204  0.9690966352943053
  0.0228030362840682  0.7517254650615537  0.9690966352943053
  0.3561363696174015  0.7517254650615537  0.9690966352943053
  0.6894697029507348  0.7517254650615537  0.9690966352943053
  0.0015734545156696  0.0626684925176482  0.2434429837092754
  0.3349067878490029  0.0626684925176482  0.2434429837092754
  0.6682401211823362  0.0626684925176482  0.2434429837092754
  0.0015734545156696  0.3960018258509815  0.2434429837092754
  0.3349067878490029  0.3960018258509815  0.2434429837092754
  0.6682401211823362  0.3960018258509815  0.2434429837092754
  0.0015734545156696  0.7293351591843147  0.2434429837092754
  0.3349067878490029  0.7293351591843147  0.2434429837092754
  0.6682401211823362  0.7293351591843147  0.2434429837092754
  0.0015734545156696  0.0626684925176482  0.5767763170426088
  0.3349067878490029  0.0626684925176482  0.5767763170426088
  0.6682401211823362  0.0626684925176482  0.5767763170426088
  0.0015734545156696  0.3960018258509815  0.5767763170426088
  0.3349067878490029  0.3960018258509815  0.5767763170426088
  0.6682401211823362  0.3960018258509815  0.5767763170426088
  0.0015734545156696  0.7293351591843147  0.5767763170426088
  0.3349067878490029  0.7293351591843147  0.5767763170426088
  0.6682401211823362  0.7293351591843147  0.5767763170426088
  0.0015734545156696  0.0626684925176482  0.9101096503759420
  0.3349067878490029  0.0626684925176482  0.9101096503759420
  0.6682401211823362  0.0626684925176482  0.9101096503759420
  0.0015734545156696  0.3960018258509815  0.9101096503759420
  0.3349067878490029  0.3960018258509815  0.9101096503759420
  0.6682401211823362  0.3960018258509815  0.9101096503759420
  0.0015734545156696  0.7293351591843147  0.9101096503759420
  0.3349067878490029  0.7293351591843147  0.9101096503759420
  0.6682401211823362  0.7293351591843147  0.9101096503759420
  0.1380133480260855  0.1767989018657403  0.2213506114458133
  0.4713466813594188  0.1767989018657403  0.2213506114458133
  0.8046800146927522  0.1767989018657403  0.2213506114458133
  0.1380133480260855  0.5101322351990736  0.2213506114458133
  0.4713466813594188  0.5101322351990736  0.2213506114458133
  0.8046800146927522  0.5101322351990736  0.2213506114458133
  0.1380133480260855  0.8434655685324068  0.2213506114458133
  0.4713466813594188  0.8434655685324068  0.2213506114458133
  0.8046800146927522  0.8434655685324068  0.2213506114458133
  0.1380133480260855  0.1767989018657403  0.5546839447791465
  0.4713466813594188  0.1767989018657403  0.5546839447791465
  0.8046800146927522  0.1767989018657403  0.5546839447791465
  0.1380133480260855  0.5101322351990736  0.5546839447791465
  0.4713466813594188  0.5101322351990736  0.5546839447791465
  0.8046800146927522  0.5101322351990736  0.5546839447791465
  0.1380133480260855  0.8434655685324068  0.5546839447791465
  0.4713466813594188  0.8434655685324068  0.5546839447791465
  0.8046800146927522  0.8434655685324068  0.5546839447791465
  0.1380133480260855  0.1767989018657403  0.8880172781124799
  0.4713466813594188  0.1767989018657403  0.8880172781124799
  0.8046800146927522  0.1767989018657403  0.8880172781124799
  0.1380133480260855  0.5101322351990736  0.8880172781124799
  0.4713466813594188  0.5101322351990736  0.8880172781124799
  0.8046800146927522  0.5101322351990736  0.8880172781124799
  0.1380133480260855  0.8434655685324068  0.8880172781124799
  0.4713466813594188  0.8434655685324068  0.8880172781124799
  0.8046800146927522  0.8434655685324068  0.8880172781124799
  0.1297913257048070  0.2246850603394784  0.2587085940106153
  0.4631246590381404  0.2246850603394784  0.2587085940106153
  0.7964579923714736  0.2246850603394784  0.2587085940106153
  0.1297913257048070  0.5580183936728118  0.2587085940106153
  0.4631246590381404  0.5580183936728118  0.2587085940106153
  0.7964579923714736  0.5580183936728118  0.2587085940106153
  0.1297913257048070  0.8913517270061451  0.2587085940106153
  0.4631246590381404  0.8913517270061451  0.2587085940106153
  0.7964579923714736  0.8913517270061451  0.2587085940106153
  0.1297913257048070  0.2246850603394784  0.5920419273439486
  0.4631246590381404  0.2246850603394784  0.5920419273439486
  0.7964579923714736  0.2246850603394784  0.5920419273439486
  0.1297913257048070  0.5580183936728118  0.5920419273439486
  0.4631246590381404  0.5580183936728118  0.5920419273439486
  0.7964579923714736  0.5580183936728118  0.5920419273439486
  0.1297913257048070  0.8913517270061451  0.5920419273439486
  0.4631246590381404  0.8913517270061451  0.5920419273439486
  0.7964579923714736  0.8913517270061451  0.5920419273439486
  0.1297913257048070  0.2246850603394784  0.9253752606772819
  0.4631246590381404  0.2246850603394784  0.9253752606772819
  0.7964579923714736  0.2246850603394784  0.9253752606772819
  0.1297913257048070  0.5580183936728118  0.9253752606772819
  0.4631246590381404  0.5580183936728118  0.9253752606772819
  0.7964579923714736  0.5580183936728118  0.9253752606772819
  0.1297913257048070  0.8913517270061451  0.9253752606772819
  0.4631246590381404  0.8913517270061451  0.9253752606772819
  0.7964579923714736  0.8913517270061451  0.9253752606772819
  0.1518041300078181  0.2035810189172562  0.3198587097654643
  0.4851374633411514  0.2035810189172562  0.3198587097654643
  0.8184707966744847  0.2035810189172562  0.3198587097654643
  0.1518041300078181  0.5369143522505896  0.3198587097654643
  0.4851374633411514  0.5369143522505896  0.3198587097654643
  0.8184707966744847  0.5369143522505896  0.3198587097654643
  0.1518041300078181  0.8702476855839230  0.3198587097654643
  0.4851374633411514  0.8702476855839230  0.3198587097654643
  0.8184707966744847  0.8702476855839230  0.3198587097654643
  0.1518041300078181  0.2035810189172562  0.6531920430987976
  0.4851374633411514  0.2035810189172562  0.6531920430987976
  0.8184707966744847  0.2035810189172562  0.6531920430987976
  0.1518041300078181  0.5369143522505896  0.6531920430987976
  0.4851374633411514  0.5369143522505896  0.6531920430987976
  0.8184707966744847  0.5369143522505896  0.6531920430987976
  0.1518041300078181  0.8702476855839230  0.6531920430987976
  0.4851374633411514  0.8702476855839230  0.6531920430987976
  0.8184707966744847  0.8702476855839230  0.6531920430987976
  0.1518041300078181  0.2035810189172562  0.9865253764321309
  0.4851374633411514  0.2035810189172562  0.9865253764321309
  0.8184707966744847  0.2035810189172562  0.9865253764321309
  0.1518041300078181  0.5369143522505896  0.9865253764321309
  0.4851374633411514  0.5369143522505896  0.9865253764321309
  0.8184707966744847  0.5369143522505896  0.9865253764321309
  0.1518041300078181  0.8702476855839230  0.9865253764321309
  0.4851374633411514  0.8702476855839230  0.9865253764321309
  0.8184707966744847  0.8702476855839230  0.9865253764321309
  0.1446198777115827  0.2517253017756315  0.0263252865991550
  0.4779532110449159  0.2517253017756315  0.0263252865991550
  0.8112865443782493  0.2517253017756315  0.0263252865991550
  0.1446198777115827  0.5850586351089648  0.0263252865991550
  0.4779532110449159  0.5850586351089648  0.0263252865991550
  0.8112865443782493  0.5850586351089648  0.0263252865991550
  0.1446198777115827  0.9183919684422982  0.0263252865991550
  0.4779532110449159  0.9183919684422982  0.0263252865991550
  0.8112865443782493  0.9183919684422982  0.0263252865991550
  0.1446198777115827  0.2517253017756315  0.3596586199324883
  0.4779532110449159  0.2517253017756315  0.3596586199324883
  0.8112865443782493  0.2517253017756315  0.3596586199324883
  0.1446198777115827  0.5850586351089648  0.3596586199324883
  0.4779532110449159  0.5850586351089648  0.3596586199324883
  0.8112865443782493  0.5850586351089648  0.3596586199324883
  0.1446198777115827  0.9183919684422982  0.3596586199324883
  0.4779532110449159  0.9183919684422982  0.3596586199324883
  0.8112865443782493  0.9183919684422982  0.3596586199324883
  0.1446198777115827  0.2517253017756315  0.6929919532658216
  0.4779532110449159  0.2517253017756315  0.6929919532658216
  0.8112865443782493  0.2517253017756315  0.6929919532658216
  0.1446198777115827  0.5850586351089648  0.6929919532658216
  0.4779532110449159  0.5850586351089648  0.6929919532658216
  0.8112865443782493  0.5850586351089648  0.6929919532658216
  0.1446198777115827  0.9183919684422982  0.6929919532658216
  0.4779532110449159  0.9183919684422982  0.6929919532658216
  0.8112865443782493  0.9183919684422982  0.6929919532658216
  0.1658494750364704  0.2293350968060112  0.0853125021186479
  0.4991828083698038  0.2293350968060112  0.0853125021186479
  0.8325161417031370  0.2293350968060112  0.0853125021186479
  0.1658494750364704  0.5626684301393445  0.0853125021186479
  0.4991828083698038  0.5626684301393445  0.0853125021186479
  0.8325161417031370  0.5626684301393445  0.0853125021186479
  0.1658494750364704  0.8960017634726778  0.0853125021186479
  0.4991828083698038  0.8960017634726778  0.0853125021186479
  0.8325161417031370  0.8960017634726778  0.0853125021186479
  0.1658494750364704  0.2293350968060112  0.4186458354519812
  0.4991828083698038  0.2293350968060112  0.4186458354519812
  0.8325161417031370  0.2293350968060112  0.4186458354519812
  0.1658494750364704  0.5626684301393445  0.4186458354519812
  0.4991828083698038  0.5626684301393445  0.4186458354519812
  0.8325161417031370  0.5626684301393445  0.4186458354519812
  0.1658494750364704  0.8960017634726778  0.4186458354519812
  0.4991828083698038  0.8960017634726778  0.4186458354519812
  0.8325161417031370  0.8960017634726778  0.4186458354519812
  0.1658494750364704  0.2293350968060112  0.7519791687853146
  0.4991828083698038  0.2293350968060112  0.7519791687853146
  0.8325161417031370  0.2293350968060112  0.7519791687853146
  0.1658494750364704  0.5626684301393445  0.7519791687853146
  0.4991828083698038  0.5626684301393445  0.7519791687853146
  0.8325161417031370  0.5626684301393445  0.7519791687853146
  0.1658494750364704  0.8960017634726778  0.7519791687853146
  0.4991828083698038  0.8960017634726778  0.7519791687853146
  0.8325161417031370  0.8960017634726778  0.7519791687853146
  0.3046800204192774  0.3242671111992105  0.2213507036862651
  0.6380133537526107  0.3242671111992105  0.2213507036862651
  0.9713466870859442  0.3242671111992105  0.2213507036862651
  0.3046800204192774  0.6576004445325438  0.2213507036862651
  0.6380133537526107  0.6576004445325438  0.2213507036862651
  0.9713466870859442  0.6576004445325438  0.2213507036862651
  0.3046800204192774  0.9909337778658772  0.2213507036862651
  0.6380133537526107  0.9909337778658772  0.2213507036862651
  0.9713466870859442  0.9909337778658772  0.2213507036862651
  0.3046800204192774  0.3242671111992105  0.5546840370195985
  0.6380133537526107  0.3242671111992105  0.5546840370195985
  0.9713466870859442  0.3242671111992105  0.5546840370195985
  0.3046800204192774  0.6576004445325438  0.5546840370195985
  0.6380133537526107  0.6576004445325438  0.5546840370195985
  0.9713466870859442  0.6576004445325438  0.5546840370195985
  0.3046800204192774  0.9909337778658772  0.5546840370195985
  0.6380133537526107  0.9909337778658772  0.5546840370195985
  0.9713466870859442  0.9909337778658772  0.5546840370195985
  0.3046800204192774  0.3242671111992105  0.8880173703529317
  0.6380133537526107  0.3242671111992105  0.8880173703529317
  0.9713466870859442  0.3242671111992105  0.8880173703529317
  0.3046800204192774  0.6576004445325438  0.8880173703529317
  0.6380133537526107  0.6576004445325438  0.8880173703529317
  0.9713466870859442  0.6576004445325438  0.8880173703529317
  0.3046800204192774  0.9909337778658772  0.8880173703529317
  0.6380133537526107  0.9909337778658772  0.8880173703529317
  0.9713466870859442  0.9909337778658772  0.8880173703529317
  0.2964581028587442  0.2763809165600182  0.2587092396937783
  0.6297914361920776  0.2763809165600182  0.2587092396937783
  0.9631247695254108  0.2763809165600182  0.2587092396937783
  0.2964581028587442  0.6097142498933515  0.2587092396937783
  0.6297914361920776  0.6097142498933515  0.2587092396937783
  0.9631247695254108  0.6097142498933515  0.2587092396937783
  0.2964581028587442  0.9430475832266849  0.2587092396937783
  0.6297914361920776  0.9430475832266849  0.2587092396937783
  0.9631247695254108  0.9430475832266849  0.2587092396937783
  0.2964581028587442  0.2763809165600182  0.5920425730271116
  0.6297914361920776  0.2763809165600182  0.5920425730271116
  0.9631247695254108  0.2763809165600182  0.5920425730271116
  0.2964581028587442  0.6097142498933515  0.5920425730271116
  0.6297914361920776  0.6097142498933515  0.5920425730271116
  0.9631247695254108  0.6097142498933515  0.5920425730271116
  0.2964581028587442  0.9430475832266849  0.5920425730271116
  0.6297914361920776  0.9430475832266849  0.5920425730271116
  0.9631247695254108  0.9430475832266849  0.5920425730271116
  0.2964581028587442  0.2763809165600182  0.9253759063604449
  0.6297914361920776  0.2763809165600182  0.9253759063604449
  0.9631247695254108  0.2763809165600182  0.9253759063604449
  0.2964581028587442  0.6097142498933515  0.9253759063604449
  0.6297914361920776  0.6097142498933515  0.9253759063604449
  0.9631247695254108  0.6097142498933515  0.9253759063604449
  0.2964581028587442  0.9430475832266849  0.9253759063604449
  0.6297914361920776  0.9430475832266849  0.9253759063604449
  0.9631247695254108  0.9430475832266849  0.9253759063604449
  0.3184708822793563  0.2974850839264115  0.3198591248474977
  0.6518042156126895  0.2974850839264115  0.3198591248474977
  0.9851375489460229  0.2974850839264115  0.3198591248474977
  0.3184708822793563  0.6308184172597449  0.3198591248474977
  0.6518042156126895  0.6308184172597449  0.3198591248474977
  0.9851375489460229  0.6308184172597449  0.3198591248474977
  0.3184708822793563  0.9641517505930782  0.3198591248474977
  0.6518042156126895  0.9641517505930782  0.3198591248474977
  0.9851375489460229  0.9641517505930782  0.3198591248474977
  0.3184708822793563  0.2974850839264115  0.6531924581808310
  0.6518042156126895  0.2974850839264115  0.6531924581808310
  0.9851375489460229  0.2974850839264115  0.6531924581808310
  0.3184708822793563  0.6308184172597449  0.6531924581808310
  0.6518042156126895  0.6308184172597449  0.6531924581808310
  0.9851375489460229  0.6308184172597449  0.6531924581808310
  0.3184708822793563  0.9641517505930782  0.6531924581808310
  0.6518042156126895  0.9641517505930782  0.6531924581808310
  0.9851375489460229  0.9641517505930782  0.6531924581808310
  0.3184708822793563  0.2974850839264115  0.9865257915141644
  0.6518042156126895  0.2974850839264115  0.9865257915141644
  0.9851375489460229  0.2974850839264115  0.9865257915141644
  0.3184708822793563  0.6308184172597449  0.9865257915141644
  0.6518042156126895  0.6308184172597449  0.9865257915141644
  0.9851375489460229  0.6308184172597449  0.9865257915141644
  0.3184708822793563  0.9641517505930782  0.9865257915141644
  0.6518042156126895  0.9641517505930782  0.9865257915141644
  0.9851375489460229  0.9641517505930782  0.9865257915141644
  0.3112867745444081  0.2493406725663291  0.0263262551238995
  0.6446201078777414  0.2493406725663291  0.0263262551238995
  0.9779534412110747  0.2493406725663291  0.0263262551238995
  0.3112867745444081  0.5826740058996625  0.0263262551238995
  0.6446201078777414  0.5826740058996625  0.0263262551238995
  0.9779534412110747  0.5826740058996625  0.0263262551238995
  0.3112867745444081  0.9160073392329957  0.0263262551238995
  0.6446201078777414  0.9160073392329957  0.0263262551238995
  0.9779534412110747  0.9160073392329957  0.0263262551238995
  0.3112867745444081  0.2493406725663291  0.3596595884572328
  0.6446201078777414  0.2493406725663291  0.3596595884572328
  0.9779534412110747  0.2493406725663291  0.3596595884572328
  0.3112867745444081  0.5826740058996625  0.3596595884572328
  0.6446201078777414  0.5826740058996625  0.3596595884572328
  0.9779534412110747  0.5826740058996625  0.3596595884572328
  0.3112867745444081  0.9160073392329957  0.3596595884572328
  0.6446201078777414  0.9160073392329957  0.3596595884572328
  0.9779534412110747  0.9160073392329957  0.3596595884572328
  0.3112867745444081  0.2493406725663291  0.6929929217905660
  0.6446201078777414  0.2493406725663291  0.6929929217905660
  0.9779534412110747  0.2493406725663291  0.6929929217905660
  0.3112867745444081  0.5826740058996625  0.6929929217905660
  0.6446201078777414  0.5826740058996625  0.6929929217905660
  0.9779534412110747  0.5826740058996625  0.6929929217905660
  0.3112867745444081  0.9160073392329957  0.6929929217905660
  0.6446201078777414  0.9160073392329957  0.6929929217905660
  0.9779534412110747  0.9160073392329957  0.6929929217905660
  0.9991829813069308  0.2717309784435680  0.0853132400422627
  0.3325163146402642  0.2717309784435680  0.0853132400422627
  0.6658496479735976  0.2717309784435680  0.0853132400422627
  0.9991829813069308  0.6050643117769013  0.0853132400422627
  0.3325163146402642  0.6050643117769013  0.0853132400422627
  0.6658496479735976  0.6050643117769013  0.0853132400422627
  0.9991829813069308  0.9383976451102347  0.0853132400422627
  0.3325163146402642  0.9383976451102347  0.0853132400422627
  0.6658496479735976  0.9383976451102347  0.0853132400422627
  0.9991829813069308  0.2717309784435680  0.4186465733755960
  0.3325163146402642  0.2717309784435680  0.4186465733755960
  0.6658496479735976  0.2717309784435680  0.4186465733755960
  0.9991829813069308  0.6050643117769013  0.4186465733755960
  0.3325163146402642  0.6050643117769013  0.4186465733755960
  0.6658496479735976  0.6050643117769013  0.4186465733755960
  0.9991829813069308  0.9383976451102347  0.4186465733755960
  0.3325163146402642  0.9383976451102347  0.4186465733755960
  0.6658496479735976  0.9383976451102347  0.4186465733755960
  0.9991829813069308  0.2717309784435680  0.7519799067089293
  0.3325163146402642  0.2717309784435680  0.7519799067089293
  0.6658496479735976  0.2717309784435680  0.7519799067089293
  0.9991829813069308  0.6050643117769013  0.7519799067089293
  0.3325163146402642  0.6050643117769013  0.7519799067089293
  0.6658496479735976  0.6050643117769013  0.7519799067089293
  0.9991829813069308  0.9383976451102347  0.7519799067089293
  0.3325163146402642  0.9383976451102347  0.7519799067089293
  0.6658496479735976  0.9383976451102347  0.7519799067089293
  0.1960764628023908  0.1576005690954759  0.1074056123057249
  0.5294097961357241  0.1576005690954759  0.1074056123057249
  0.8627431294690574  0.1576005690954759  0.1074056123057249
  0.1960764628023908  0.4909339024288092  0.1074056123057249
  0.5294097961357241  0.4909339024288092  0.1074056123057249
  0.8627431294690574  0.4909339024288092  0.1074056123057249
  0.1960764628023908  0.8242672357621426  0.1074056123057249
  0.5294097961357241  0.8242672357621426  0.1074056123057249
  0.8627431294690574  0.8242672357621426  0.1074056123057249
  0.1960764628023908  0.1576005690954759  0.4407389456390582
  0.5294097961357241  0.1576005690954759  0.4407389456390582
  0.8627431294690574  0.1576005690954759  0.4407389456390582
  0.1960764628023908  0.4909339024288092  0.4407389456390582
  0.5294097961357241  0.4909339024288092  0.4407389456390582
  0.8627431294690574  0.4909339024288092  0.4407389456390582
  0.1960764628023908  0.8242672357621426  0.4407389456390582
  0.5294097961357241  0.8242672357621426  0.4407389456390582
  0.8627431294690574  0.8242672357621426  0.4407389456390582
  0.1960764628023908  0.1576005690954759  0.7740722789723915
  0.5294097961357241  0.1576005690954759  0.7740722789723915
  0.8627431294690574  0.1576005690954759  0.7740722789723915
  0.1960764628023908  0.4909339024288092  0.7740722789723915
  0.5294097961357241  0.4909339024288092  0.7740722789723915
  0.8627431294690574  0.4909339024288092  0.7740722789723915
  0.1960764628023908  0.8242672357621426  0.7740722789723915
  0.5294097961357241  0.8242672357621426  0.7740722789723915
  0.8627431294690574  0.8242672357621426  0.7740722789723915
  0.2042984578764313  0.1097144106220748  0.0700475836206969
  0.5376317912097646  0.1097144106220748  0.0700475836206969
  0.8709651245430978  0.1097144106220748  0.0700475836206969
  0.2042984578764313  0.4430477439554081  0.0700475836206969
  0.5376317912097646  0.4430477439554081  0.0700475836206969
  0.8709651245430978  0.4430477439554081  0.0700475836206969
  0.2042984578764313  0.7763810772887414  0.0700475836206969
  0.5376317912097646  0.7763810772887414  0.0700475836206969
  0.8709651245430978  0.7763810772887414  0.0700475836206969
  0.2042984578764313  0.1097144106220748  0.4033809169540302
  0.5376317912097646  0.1097144106220748  0.4033809169540302
  0.8709651245430978  0.1097144106220748  0.4033809169540302
  0.2042984578764313  0.4430477439554081  0.4033809169540302
  0.5376317912097646  0.4430477439554081  0.4033809169540302
  0.8709651245430978  0.4430477439554081  0.4033809169540302
  0.2042984578764313  0.7763810772887414  0.4033809169540302
  0.5376317912097646  0.7763810772887414  0.4033809169540302
  0.8709651245430978  0.7763810772887414  0.4033809169540302
  0.2042984578764313  0.1097144106220748  0.7367142502873636
  0.5376317912097646  0.1097144106220748  0.7367142502873636
  0.8709651245430978  0.1097144106220748  0.7367142502873636
  0.2042984578764313  0.4430477439554081  0.7367142502873636
  0.5376317912097646  0.4430477439554081  0.7367142502873636
  0.8709651245430978  0.4430477439554081  0.7367142502873636
  0.2042984578764313  0.7763810772887414  0.7367142502873636
  0.5376317912097646  0.7763810772887414  0.7367142502873636
  0.8709651245430978  0.7763810772887414  0.7367142502873636
  0.1822856535734202  0.1308184520442970  0.0088974678658479
  0.5156189869067536  0.1308184520442970  0.0088974678658479
  0.8489523202400868  0.1308184520442970  0.0088974678658479
  0.1822856535734202  0.4641517853776303  0.0088974678658479
  0.5156189869067536  0.4641517853776303  0.0088974678658479
  0.8489523202400868  0.4641517853776303  0.0088974678658479
  0.1822856535734202  0.7974851187109637  0.0088974678658479
  0.5156189869067536  0.7974851187109637  0.0088974678658479
  0.8489523202400868  0.7974851187109637  0.0088974678658479
  0.1822856535734202  0.1308184520442970  0.3422308011991811
  0.5156189869067536  0.1308184520442970  0.3422308011991811
  0.8489523202400868  0.1308184520442970  0.3422308011991811
  0.1822856535734202  0.4641517853776303  0.3422308011991811
  0.5156189869067536  0.4641517853776303  0.3422308011991811
  0.8489523202400868  0.4641517853776303  0.3422308011991811
  0.1822856535734202  0.7974851187109637  0.3422308011991811
  0.5156189869067536  0.7974851187109637  0.3422308011991811
  0.8489523202400868  0.7974851187109637  0.3422308011991811
  0.1822856535734202  0.1308184520442970  0.6755641345325145
  0.5156189869067536  0.1308184520442970  0.6755641345325145
  0.8489523202400868  0.1308184520442970  0.6755641345325145
  0.1822856535734202  0.4641517853776303  0.6755641345325145
  0.5156189869067536  0.4641517853776303  0.6755641345325145
  0.8489523202400868  0.4641517853776303  0.6755641345325145
  0.1822856535734202  0.7974851187109637  0.6755641345325145
  0.5156189869067536  0.7974851187109637  0.6755641345325145
  0.8489523202400868  0.7974851187109637  0.6755641345325145
  0.1894699331168937  0.0826741691855846  0.3024309371523832