timestep     1.000000
dump equil_NVT_dump all custom 1000 equil_NVT.dump id type element xu yu zu
dump_modify equil_NVT_dump element Zn H H C C C C C C C O O O
fix equil_NVT all nvt temp   300.000000   300.000000 100
thermo_style custom step evdwl ecoul elong ebond eangle eimp edihed pe ke etotal temp press vol spcpu
thermo 100
run 250000
