timestep     1.000000
dump produ_pplus_dump all custom 500 produ_pplus.dump id type element xu yu zu
dump_modify produ_pplus_dump element Zn H H C C C C C C C O O O
fix produ_pplus_mttknhc all mttknhc temp 300.0000 300.0000 100.0000 tri -5000.000000     0.000000  1000.000000 volconstraint no
fix_modify produ_pplus_mttknhc energy yes
thermo_style custom step evdwl ecoul elong ebond eangle eimp edihed pe ke etotal temp press vol cella cellb cellc cellalpha cellbeta cellgamma pxx pyy pzz pxy pxz pyz enthalpy spcpu
thermo 100
run 5000000
