clear
units real
boundary p p p
atom_style full
box tilt large
read_data produ_traj_1000.data

neighbor 2.0 bin


# ------------------------ MOF-FF FORCE FIELD ------------------------------

kspace_style ewald      1e-06
pair_style buck6d/coul/gauss/long     0.9000     0.9000    12.0000

pair_coeff     1     1           54464       2.6548673       5679.4311       33.208515      0.34105377    # buck6d->(cu6_cu1n1o4@cu2p)|CuPW_dabco/gaussian->(cu6_cu1n1o4@cu2p)|CuPW_dabco <--> buck6d->(cu6_cu1n1o4@cu2p)|CuPW_dabco/gaussian->(cu6_cu1n1o4@cu2p)|CuPW_dabco
pair_coeff     1     2       24315.863       2.9411765       1371.5617       7.9168726      0.42456807    # buck6d->(cu6_cu1n1o4@cu2p)|CuPW_dabco/gaussian->(cu6_cu1n1o4@cu2p)|CuPW_dabco <--> buck6d->(o2_c1cu1@co2)|CuPW_dabco/gaussian->(o2_c1cu1@co2)|CuPW_dabco
pair_coeff     1     3       23689.598       2.8571429       1590.0769        11.87959      0.42066066    # buck6d->(cu6_cu1n1o4@cu2p)|CuPW_dabco/gaussian->(cu6_cu1n1o4@cu2p)|CuPW_dabco <--> buck6d->(c3_c1o2@co2)|CuPW_dabco/gaussian->(c3_c1o2@co2)|CuPW_dabco
pair_coeff     1     4       23689.598       2.8436019        1636.052       12.696549      0.42066187    # buck6d->(cu6_cu1n1o4@cu2p)|CuPW_dabco/gaussian->(cu6_cu1n1o4@cu2p)|CuPW_dabco <--> buck6d->(c3_c2h1@ph)|benzene/gaussian->(c3_c2h1@ph)|benzene
pair_coeff     1     5       23689.598       2.8436019        1636.052       12.696549      0.42066066    # buck6d->(cu6_cu1n1o4@cu2p)|CuPW_dabco/gaussian->(cu6_cu1n1o4@cu2p)|CuPW_dabco <--> buck6d->(c3_c2h1@ph)|benzene/gaussian->(c3_c3@ph)|CuPW_dabco
pair_coeff     1     6       23689.598       2.8436019        1636.052       12.696549      0.42066187    # buck6d->(cu6_cu1n1o4@cu2p)|CuPW_dabco/gaussian->(cu6_cu1n1o4@cu2p)|CuPW_dabco <--> buck6d->(c3_c2o1@ph)|ph-O-butyl/gaussian->(c3_c2o1@ph)|ph-O-butyl
pair_coeff     1     7       24315.863       2.9411765       1371.5617       7.9168726      0.42457209    # buck6d->(cu6_cu1n1o4@cu2p)|CuPW_dabco/gaussian->(cu6_cu1n1o4@cu2p)|CuPW_dabco <--> buck6d->(o2_c2@eth)|ph-O-butyl/gaussian->(o2_c2@eth)|ph-O-butyl
pair_coeff     1     8        16449.23       2.7906977       1271.5135       16.514664      0.42066187    # buck6d->(cu6_cu1n1o4@cu2p)|CuPW_dabco/gaussian->(cu6_cu1n1o4@cu2p)|CuPW_dabco <--> buck6d->(c4_c1h2o1@me)|ph-O-butyl/gaussian->(c4_c1h2o1@me)|ph-O-butyl
pair_coeff     1     9        16449.23       2.7906977       1271.5135       16.514664      0.42066187    # buck6d->(cu6_cu1n1o4@cu2p)|CuPW_dabco/gaussian->(cu6_cu1n1o4@cu2p)|CuPW_dabco <--> buck6d->(c4_c2h2@me)|butane/gaussian->(c4_c2h2@me)|butane
pair_coeff     1    10        16449.23       2.7906977       1271.5135       16.514664      0.42066187    # buck6d->(cu6_cu1n1o4@cu2p)|CuPW_dabco/gaussian->(cu6_cu1n1o4@cu2p)|CuPW_dabco <--> buck6d->(c4_c1h3@me)|butane/gaussian->(c4_c1h3@me)|butane
pair_coeff     1    11       14157.243       3.1914894       489.18197       2.5231391      0.45538243    # buck6d->(cu6_cu1n1o4@cu2p)|CuPW_dabco/gaussian->(cu6_cu1n1o4@cu2p)|CuPW_dabco <--> buck6d->(h1_c1@ph)|benzene/gaussian->(h1_c1@ph)|benzene
pair_coeff     1    12       14157.243       3.1914894       489.18197       2.5231391      0.45538243    # buck6d->(cu6_cu1n1o4@cu2p)|CuPW_dabco/gaussian->(cu6_cu1n1o4@cu2p)|CuPW_dabco <--> buck6d->(h1_c1@me)|butane/gaussian->(h1_c1@me)|butane
pair_coeff     1    13       20758.593       2.8639618       1373.5572       11.489674      0.42393054    # buck6d->(cu6_cu1n1o4@cu2p)|CuPW_dabco/gaussian->(cu6_cu1n1o4@cu2p)|CuPW_dabco <--> buck6d->(n4_c3cu1@dab)|dabco/gaussian->(n4_c3cu1@dab)|dabco
pair_coeff     1    14        16449.23       2.7906977       1271.5135       16.514664      0.42066186    # buck6d->(cu6_cu1n1o4@cu2p)|CuPW_dabco/gaussian->(cu6_cu1n1o4@cu2p)|CuPW_dabco <--> buck6d->(c4_c1h2n1@dab)|dabco/gaussian->(c4_c1h2n1@dab)|dabco
pair_coeff     1    15       14157.243       3.1914894       489.18197       2.5231391      0.45538238    # buck6d->(cu6_cu1n1o4@cu2p)|CuPW_dabco/gaussian->(cu6_cu1n1o4@cu2p)|CuPW_dabco <--> buck6d->(h1_c1@dab)|dabco/gaussian->(h1_c1@dab)|dabco
pair_coeff     2     2           10856       3.2967033        308.7755       1.6022517      0.63270113    # buck6d->(o2_c1cu1@co2)|CuPW_dabco/gaussian->(o2_c1cu1@co2)|CuPW_dabco <--> buck6d->(o2_c1cu1@co2)|CuPW_dabco/gaussian->(o2_c1cu1@co2)|CuPW_dabco
pair_coeff     2     3       10576.399       3.1914894       365.45138       2.5231391      0.61998309    # buck6d->(o2_c1cu1@co2)|CuPW_dabco/gaussian->(o2_c1cu1@co2)|CuPW_dabco <--> buck6d->(c3_c1o2@co2)|CuPW_dabco/gaussian->(c3_c1o2@co2)|CuPW_dabco
pair_coeff     2     4       10576.399       3.1746032       377.27092       2.7176691      0.61998697    # buck6d->(o2_c1cu1@co2)|CuPW_dabco/gaussian->(o2_c1cu1@co2)|CuPW_dabco <--> buck6d->(c3_c2h1@ph)|benzene/gaussian->(c3_c2h1@ph)|benzene
pair_coeff     2     5       10576.399       3.1746032       377.27092       2.7176691      0.61998309    # buck6d->(o2_c1cu1@co2)|CuPW_dabco/gaussian->(o2_c1cu1@co2)|CuPW_dabco <--> buck6d->(c3_c2h1@ph)|benzene/gaussian->(c3_c3@ph)|CuPW_dabco
pair_coeff     2     6       10576.399       3.1746032       377.27092       2.7176691      0.61998697    # buck6d->(o2_c1cu1@co2)|CuPW_dabco/gaussian->(o2_c1cu1@co2)|CuPW_dabco <--> buck6d->(c3_c2o1@ph)|ph-O-butyl/gaussian->(c3_c2o1@ph)|ph-O-butyl
pair_coeff     2     7           10856       3.2967033        308.7755       1.6022517      0.63271443    # buck6d->(o2_c1cu1@co2)|CuPW_dabco/gaussian->(o2_c1cu1@co2)|CuPW_dabco <--> buck6d->(o2_c2@eth)|ph-O-butyl/gaussian->(o2_c2@eth)|ph-O-butyl
pair_coeff     2     8       7343.8824       3.1088083       297.03952       3.6436247      0.61998697    # buck6d->(o2_c1cu1@co2)|CuPW_dabco/gaussian->(o2_c1cu1@co2)|CuPW_dabco <--> buck6d->(c4_c1h2o1@me)|ph-O-butyl/gaussian->(c4_c1h2o1@me)|ph-O-butyl
pair_coeff     2     9       7343.8824       3.1088083       297.03952       3.6436247      0.61998697    # buck6d->(o2_c1cu1@co2)|CuPW_dabco/gaussian->(o2_c1cu1@co2)|CuPW_dabco <--> buck6d->(c4_c2h2@me)|butane/gaussian->(c4_c2h2@me)|butane
pair_coeff     2    10       7343.8824       3.1088083       297.03952       3.6436247      0.61998697    # buck6d->(o2_c1cu1@co2)|CuPW_dabco/gaussian->(o2_c1cu1@co2)|CuPW_dabco <--> buck6d->(c4_c1h3@me)|butane/gaussian->(c4_c1h3@me)|butane
pair_coeff     2    11       6320.6076       3.6144578       103.50278      0.44181916      0.75107727    # buck6d->(o2_c1cu1@co2)|CuPW_dabco/gaussian->(o2_c1cu1@co2)|CuPW_dabco <--> buck6d->(h1_c1@ph)|benzene/gaussian->(h1_c1@ph)|benzene
pair_coeff     2    12       6320.6076       3.6144578       103.50278      0.44181916      0.75107727    # buck6d->(o2_c1cu1@co2)|CuPW_dabco/gaussian->(o2_c1cu1@co2)|CuPW_dabco <--> buck6d->(h1_c1@me)|butane/gaussian->(h1_c1@me)|butane
pair_coeff     2    13         9267.83             3.2       315.15947       2.4307994      0.63059705    # buck6d->(o2_c1cu1@co2)|CuPW_dabco/gaussian->(o2_c1cu1@co2)|CuPW_dabco <--> buck6d->(n4_c3cu1@dab)|dabco/gaussian->(n4_c3cu1@dab)|dabco
pair_coeff     2    14       7343.8824       3.1088083       297.03952       3.6436247      0.61998694    # buck6d->(o2_c1cu1@co2)|CuPW_dabco/gaussian->(o2_c1cu1@co2)|CuPW_dabco <--> buck6d->(c4_c1h2n1@dab)|dabco/gaussian->(c4_c1h2n1@dab)|dabco
pair_coeff     2    15       6320.6076       3.6144578       103.50278      0.44181916      0.75107705    # buck6d->(o2_c1cu1@co2)|CuPW_dabco/gaussian->(o2_c1cu1@co2)|CuPW_dabco <--> buck6d->(h1_c1@dab)|dabco/gaussian->(h1_c1@dab)|dabco
pair_coeff     3     3           10304       3.0927835       429.89352       3.9170177      0.60800239    # buck6d->(c3_c1o2@co2)|CuPW_dabco/gaussian->(c3_c1o2@co2)|CuPW_dabco <--> buck6d->(c3_c1o2@co2)|CuPW_dabco/gaussian->(c3_c1o2@co2)|CuPW_dabco
pair_coeff     3     4           10304       3.0769231       443.36171       4.2093581      0.60800605    # buck6d->(c3_c1o2@co2)|CuPW_dabco/gaussian->(c3_c1o2@co2)|CuPW_dabco <--> buck6d->(c3_c2h1@ph)|benzene/gaussian->(c3_c2h1@ph)|benzene
pair_coeff     3     5           10304       3.0769231       443.36171       4.2093581      0.60800239    # buck6d->(c3_c1o2@co2)|CuPW_dabco/gaussian->(c3_c1o2@co2)|CuPW_dabco <--> buck6d->(c3_c2h1@ph)|benzene/gaussian->(c3_c3@ph)|CuPW_dabco
pair_coeff     3     6           10304       3.0769231       443.36171       4.2093581      0.60800605    # buck6d->(c3_c1o2@co2)|CuPW_dabco/gaussian->(c3_c1o2@co2)|CuPW_dabco <--> buck6d->(c3_c2o1@ph)|ph-O-butyl/gaussian->(c3_c2o1@ph)|ph-O-butyl
pair_coeff     3     7       10576.399       3.1914894       365.45138       2.5231391       0.6199956    # buck6d->(c3_c1o2@co2)|CuPW_dabco/gaussian->(c3_c1o2@co2)|CuPW_dabco <--> buck6d->(o2_c2@eth)|ph-O-butyl/gaussian->(o2_c2@eth)|ph-O-butyl
pair_coeff     3     8       7154.7377       3.0150754       347.74176       5.5933807      0.60800605    # buck6d->(c3_c1o2@co2)|CuPW_dabco/gaussian->(c3_c1o2@co2)|CuPW_dabco <--> buck6d->(c4_c1h2o1@me)|ph-O-butyl/gaussian->(c4_c1h2o1@me)|ph-O-butyl
pair_coeff     3     9       7154.7377       3.0150754       347.74176       5.5933807      0.60800605    # buck6d->(c3_c1o2@co2)|CuPW_dabco/gaussian->(c3_c1o2@co2)|CuPW_dabco <--> buck6d->(c4_c2h2@me)|butane/gaussian->(c4_c2h2@me)|butane
pair_coeff     3    10       7154.7377       3.0150754       347.74176       5.5933807      0.60800605    # buck6d->(c3_c1o2@co2)|CuPW_dabco/gaussian->(c3_c1o2@co2)|CuPW_dabco <--> buck6d->(c4_c1h3@me)|butane/gaussian->(c4_c1h3@me)|butane
pair_coeff     3    11       6157.8178       3.4883721        124.7792      0.72632262      0.73005908    # buck6d->(c3_c1o2@co2)|CuPW_dabco/gaussian->(c3_c1o2@co2)|CuPW_dabco <--> buck6d->(h1_c1@ph)|benzene/gaussian->(h1_c1@ph)|benzene
pair_coeff     3    12       6157.8178       3.4883721        124.7792      0.72632262      0.73005908    # buck6d->(c3_c1o2@co2)|CuPW_dabco/gaussian->(c3_c1o2@co2)|CuPW_dabco <--> buck6d->(h1_c1@me)|butane/gaussian->(h1_c1@me)|butane
pair_coeff     3    13       9029.1333       3.1007752       370.91684       3.7780255      0.61800297    # buck6d->(c3_c1o2@co2)|CuPW_dabco/gaussian->(c3_c1o2@co2)|CuPW_dabco <--> buck6d->(n4_c3cu1@dab)|dabco/gaussian->(n4_c3cu1@dab)|dabco
pair_coeff     3    14       7154.7377       3.0150754       347.74176       5.5933807      0.60800602    # buck6d->(c3_c1o2@co2)|CuPW_dabco/gaussian->(c3_c1o2@co2)|CuPW_dabco <--> buck6d->(c4_c1h2n1@dab)|dabco/gaussian->(c4_c1h2n1@dab)|dabco
pair_coeff     3    15       6157.8178       3.4883721        124.7792      0.72632262      0.73005889    # buck6d->(c3_c1o2@co2)|CuPW_dabco/gaussian->(c3_c1o2@co2)|CuPW_dabco <--> buck6d->(h1_c1@dab)|dabco/gaussian->(h1_c1@dab)|dabco
pair_coeff     4     4           10304       3.0612245       457.17971       4.5218516      0.60800971    # buck6d->(c3_c2h1@ph)|benzene/gaussian->(c3_c2h1@ph)|benzene <--> buck6d->(c3_c2h1@ph)|benzene/gaussian->(c3_c2h1@ph)|benzene
pair_coeff     4     5           10304       3.0612245       457.17971       4.5218516      0.60800605    # buck6d->(c3_c2h1@ph)|benzene/gaussian->(c3_c2h1@ph)|benzene <--> buck6d->(c3_c2h1@ph)|benzene/gaussian->(c3_c3@ph)|CuPW_dabco
pair_coeff     4     6           10304       3.0612245       457.17971       4.5218516      0.60800971    # buck6d->(c3_c2h1@ph)|benzene/gaussian->(c3_c2h1@ph)|benzene <--> buck6d->(c3_c2o1@ph)|ph-O-butyl/gaussian->(c3_c2o1@ph)|ph-O-butyl
pair_coeff     4     7       10576.399       3.1746032       377.27092       2.7176691      0.61999948    # buck6d->(c3_c2h1@ph)|benzene/gaussian->(c3_c2h1@ph)|benzene <--> buck6d->(o2_c2@eth)|ph-O-butyl/gaussian->(o2_c2@eth)|ph-O-butyl
pair_coeff     4     8       7154.7377               3       358.35904               6      0.60800971    # buck6d->(c3_c2h1@ph)|benzene/gaussian->(c3_c2h1@ph)|benzene <--> buck6d->(c4_c1h2o1@me)|ph-O-butyl/gaussian->(c4_c1h2o1@me)|ph-O-butyl
pair_coeff     4     9       7154.7377               3       358.35904               6      0.60800971    # buck6d->(c3_c2h1@ph)|benzene/gaussian->(c3_c2h1@ph)|benzene <--> buck6d->(c4_c2h2@me)|butane/gaussian->(c4_c2h2@me)|butane
pair_coeff     4    10       7154.7377               3       358.35904               6      0.60800971    # buck6d->(c3_c2h1@ph)|benzene/gaussian->(c3_c2h1@ph)|benzene <--> buck6d->(c4_c1h3@me)|butane/gaussian->(c4_c1h3@me)|butane
pair_coeff     4    11       6157.8178       3.4682081       129.19572      0.78772886      0.73006542    # buck6d->(c3_c2h1@ph)|benzene/gaussian->(c3_c2h1@ph)|benzene <--> buck6d->(h1_c1@ph)|benzene/gaussian->(h1_c1@ph)|benzene
pair_coeff     4    12       6157.8178       3.4682081       129.19572      0.78772886      0.73006542    # buck6d->(c3_c2h1@ph)|benzene/gaussian->(c3_c2h1@ph)|benzene <--> buck6d->(h1_c1@me)|butane/gaussian->(h1_c1@me)|butane
pair_coeff     4    13       9029.1333       3.0848329       382.56776       4.0607457      0.61800681    # buck6d->(c3_c2h1@ph)|benzene/gaussian->(c3_c2h1@ph)|benzene <--> buck6d->(n4_c3cu1@dab)|dabco/gaussian->(n4_c3cu1@dab)|dabco
pair_coeff     4    14       7154.7377               3       358.35904               6      0.60800968    # buck6d->(c3_c2h1@ph)|benzene/gaussian->(c3_c2h1@ph)|benzene <--> buck6d->(c4_c1h2n1@dab)|dabco/gaussian->(c4_c1h2n1@dab)|dabco
pair_coeff     4    15       6157.8178       3.4682081       129.19572      0.78772886      0.73006522    # buck6d->(c3_c2h1@ph)|benzene/gaussian->(c3_c2h1@ph)|benzene <--> buck6d->(h1_c1@dab)|dabco/gaussian->(h1_c1@dab)|dabco
pair_coeff     5     5           10304       3.0612245       457.17971       4.5218516      0.60800239    # buck6d->(c3_c2h1@ph)|benzene/gaussian->(c3_c3@ph)|CuPW_dabco <--> buck6d->(c3_c2h1@ph)|benzene/gaussian->(c3_c3@ph)|CuPW_dabco
pair_coeff     5     6           10304       3.0612245       457.17971       4.5218516      0.60800605    # buck6d->(c3_c2h1@ph)|benzene/gaussian->(c3_c3@ph)|CuPW_dabco <--> buck6d->(c3_c2o1@ph)|ph-O-butyl/gaussian->(c3_c2o1@ph)|ph-O-butyl
pair_coeff     5     7       10576.399       3.1746032       377.27092       2.7176691       0.6199956    # buck6d->(c3_c2h1@ph)|benzene/gaussian->(c3_c3@ph)|CuPW_dabco <--> buck6d->(o2_c2@eth)|ph-O-butyl/gaussian->(o2_c2@eth)|ph-O-butyl
pair_coeff     5     8       7154.7377               3       358.35904               6      0.60800605    # buck6d->(c3_c2h1@ph)|benzene/gaussian->(c3_c3@ph)|CuPW_dabco <--> buck6d->(c4_c1h2o1@me)|ph-O-butyl/gaussian->(c4_c1h2o1@me)|ph-O-butyl
pair_coeff     5     9       7154.7377               3       358.35904               6      0.60800605    # buck6d->(c3_c2h1@ph)|benzene/gaussian->(c3_c3@ph)|CuPW_dabco <--> buck6d->(c4_c2h2@me)|butane/gaussian->(c4_c2h2@me)|butane
pair_coeff     5    10       7154.7377               3       358.35904               6      0.60800605    # buck6d->(c3_c2h1@ph)|benzene/gaussian->(c3_c3@ph)|CuPW_dabco <--> buck6d->(c4_c1h3@me)|butane/gaussian->(c4_c1h3@me)|butane
pair_coeff     5    11       6157.8178       3.4682081       129.19572      0.78772886      0.73005908    # buck6d->(c3_c2h1@ph)|benzene/gaussian->(c3_c3@ph)|CuPW_dabco <--> buck6d->(h1_c1@ph)|benzene/gaussian->(h1_c1@ph)|benzene
pair_coeff     5    12       6157.8178       3.4682081       129.19572      0.78772886      0.73005908    # buck6d->(c3_c2h1@ph)|benzene/gaussian->(c3_c3@ph)|CuPW_dabco <--> buck6d->(h1_c1@me)|butane/gaussian->(h1_c1@me)|butane
pair_coeff     5    13       9029.1333       3.0848329       382.56776       4.0607457      0.61800297    # buck6d->(c3_c2h1@ph)|benzene/gaussian->(c3_c3@ph)|CuPW_dabco <--> buck6d->(n4_c3cu1@dab)|dabco/gaussian->(n4_c3cu1@dab)|dabco
pair_coeff     5    14       7154.7377               3       358.35904               6      0.60800602    # buck6d->(c3_c2h1@ph)|benzene/gaussian->(c3_c3@ph)|CuPW_dabco <--> buck6d->(c4_c1h2n1@dab)|dabco/gaussian->(c4_c1h2n1@dab)|dabco
pair_coeff     5    15       6157.8178       3.4682081       129.19572      0.78772886      0.73005889    # buck6d->(c3_c2h1@ph)|benzene/gaussian->(c3_c3@ph)|CuPW_dabco <--> buck6d->(h1_c1@dab)|dabco/gaussian->(h1_c1@dab)|dabco
pair_coeff     6     6           10304       3.0612245       457.17971       4.5218516      0.60800971    # buck6d->(c3_c2o1@ph)|ph-O-butyl/gaussian->(c3_c2o1@ph)|ph-O-butyl <--> buck6d->(c3_c2o1@ph)|ph-O-butyl/gaussian->(c3_c2o1@ph)|ph-O-butyl
pair_coeff     6     7       10576.399       3.1746032       377.27092       2.7176691      0.61999948    # buck6d->(c3_c2o1@ph)|ph-O-butyl/gaussian->(c3_c2o1@ph)|ph-O-butyl <--> buck6d->(o2_c2@eth)|ph-O-butyl/gaussian->(o2_c2@eth)|ph-O-butyl
pair_coeff     6     8       7154.7377               3       358.35904               6      0.60800971    # buck6d->(c3_c2o1@ph)|ph-O-butyl/gaussian->(c3_c2o1@ph)|ph-O-butyl <--> buck6d->(c4_c1h2o1@me)|ph-O-butyl/gaussian->(c4_c1h2o1@me)|ph-O-butyl
pair_coeff     6     9       7154.7377               3       358.35904               6      0.60800971    # buck6d->(c3_c2o1@ph)|ph-O-butyl/gaussian->(c3_c2o1@ph)|ph-O-butyl <--> buck6d->(c4_c2h2@me)|butane/gaussian->(c4_c2h2@me)|butane
pair_coeff     6    10       7154.7377               3       358.35904               6      0.60800971    # buck6d->(c3_c2o1@ph)|ph-O-butyl/gaussian->(c3_c2o1@ph)|ph-O-butyl <--> buck6d->(c4_c1h3@me)|butane/gaussian->(c4_c1h3@me)|butane
pair_coeff     6    11       6157.8178       3.4682081       129.19572      0.78772886      0.73006542    # buck6d->(c3_c2o1@ph)|ph-O-butyl/gaussian->(c3_c2o1@ph)|ph-O-butyl <--> buck6d->(h1_c1@ph)|benzene/gaussian->(h1_c1@ph)|benzene
pair_coeff     6    12       6157.8178       3.4682081       129.19572      0.78772886      0.73006542    # buck6d->(c3_c2o1@ph)|ph-O-butyl/gaussian->(c3_c2o1@ph)|ph-O-butyl <--> buck6d->(h1_c1@me)|butane/gaussian->(h1_c1@me)|butane
pair_coeff     6    13       9029.1333       3.0848329       382.56776       4.0607457      0.61800681    # buck6d->(c3_c2o1@ph)|ph-O-butyl/gaussian->(c3_c2o1@ph)|ph-O-butyl <--> buck6d->(n4_c3cu1@dab)|dabco/gaussian->(n4_c3cu1@dab)|dabco
pair_coeff     6    14       7154.7377               3       358.35904               6      0.60800968    # buck6d->(c3_c2o1@ph)|ph-O-butyl/gaussian->(c3_c2o1@ph)|ph-O-butyl <--> buck6d->(c4_c1h2n1@dab)|dabco/gaussian->(c4_c1h2n1@dab)|dabco
pair_coeff     6    15       6157.8178       3.4682081       129.19572      0.78772886      0.73006522    # buck6d->(c3_c2o1@ph)|ph-O-butyl/gaussian->(c3_c2o1@ph)|ph-O-butyl <--> buck6d->(h1_c1@dab)|dabco/gaussian->(h1_c1@dab)|dabco
pair_coeff     7     7           10856       3.2967033        308.7755       1.6022517      0.63272774    # buck6d->(o2_c2@eth)|ph-O-butyl/gaussian->(o2_c2@eth)|ph-O-butyl <--> buck6d->(o2_c2@eth)|ph-O-butyl/gaussian->(o2_c2@eth)|ph-O-butyl
pair_coeff     7     8       7343.8824       3.1088083       297.03952       3.6436247      0.61999948    # buck6d->(o2_c2@eth)|ph-O-butyl/gaussian->(o2_c2@eth)|ph-O-butyl <--> buck6d->(c4_c1h2o1@me)|ph-O-butyl/gaussian->(c4_c1h2o1@me)|ph-O-butyl
pair_coeff     7     9       7343.8824       3.1088083       297.03952       3.6436247      0.61999948    # buck6d->(o2_c2@eth)|ph-O-butyl/gaussian->(o2_c2@eth)|ph-O-butyl <--> buck6d->(c4_c2h2@me)|butane/gaussian->(c4_c2h2@me)|butane
pair_coeff     7    10       7343.8824       3.1088083       297.03952       3.6436247      0.61999948    # buck6d->(o2_c2@eth)|ph-O-butyl/gaussian->(o2_c2@eth)|ph-O-butyl <--> buck6d->(c4_c1h3@me)|butane/gaussian->(c4_c1h3@me)|butane
pair_coeff     7    11       6320.6076       3.6144578       103.50278      0.44181916      0.75109952    # buck6d->(o2_c2@eth)|ph-O-butyl/gaussian->(o2_c2@eth)|ph-O-butyl <--> buck6d->(h1_c1@ph)|benzene/gaussian->(h1_c1@ph)|benzene
pair_coeff     7    12       6320.6076       3.6144578       103.50278      0.44181916      0.75109952    # buck6d->(o2_c2@eth)|ph-O-butyl/gaussian->(o2_c2@eth)|ph-O-butyl <--> buck6d->(h1_c1@me)|butane/gaussian->(h1_c1@me)|butane
pair_coeff     7    13         9267.83             3.2       315.15947       2.4307994      0.63061022    # buck6d->(o2_c2@eth)|ph-O-butyl/gaussian->(o2_c2@eth)|ph-O-butyl <--> buck6d->(n4_c3cu1@dab)|dabco/gaussian->(n4_c3cu1@dab)|dabco
pair_coeff     7    14       7343.8824       3.1088083       297.03952       3.6436247      0.61999946    # buck6d->(o2_c2@eth)|ph-O-butyl/gaussian->(o2_c2@eth)|ph-O-butyl <--> buck6d->(c4_c1h2n1@dab)|dabco/gaussian->(c4_c1h2n1@dab)|dabco
pair_coeff     7    15       6320.6076       3.6144578       103.50278      0.44181916      0.75109931    # buck6d->(o2_c2@eth)|ph-O-butyl/gaussian->(o2_c2@eth)|ph-O-butyl <--> buck6d->(h1_c1@dab)|dabco/gaussian->(h1_c1@dab)|dabco
pair_coeff     8     8            4968       2.9411765       280.22525       7.9168726      0.60800971    # buck6d->(c4_c1h2o1@me)|ph-O-butyl/gaussian->(c4_c1h2o1@me)|ph-O-butyl <--> buck6d->(c4_c1h2o1@me)|ph-O-butyl/gaussian->(c4_c1h2o1@me)|ph-O-butyl
pair_coeff     8     9            4968       2.9411765       280.22525       7.9168726      0.60800971    # buck6d->(c4_c1h2o1@me)|ph-O-butyl/gaussian->(c4_c1h2o1@me)|ph-O-butyl <--> buck6d->(c4_c2h2@me)|butane/gaussian->(c4_c2h2@me)|butane
pair_coeff     8    10            4968       2.9411765       280.22525       7.9168726      0.60800971    # buck6d->(c4_c1h2o1@me)|ph-O-butyl/gaussian->(c4_c1h2o1@me)|ph-O-butyl <--> buck6d->(c4_c1h3@me)|butane/gaussian->(c4_c1h3@me)|butane
pair_coeff     8    11       4275.7736       3.3898305       102.89611       1.0848184      0.73006542    # buck6d->(c4_c1h2o1@me)|ph-O-butyl/gaussian->(c4_c1h2o1@me)|ph-O-butyl <--> buck6d->(h1_c1@ph)|benzene/gaussian->(h1_c1@ph)|benzene
pair_coeff     8    12       4275.7736       3.3898305       102.89611       1.0848184      0.73006542    # buck6d->(c4_c1h2o1@me)|ph-O-butyl/gaussian->(c4_c1h2o1@me)|ph-O-butyl <--> buck6d->(h1_c1@me)|butane/gaussian->(h1_c1@me)|butane
pair_coeff     8    13       6269.5148         3.02267        300.1523       5.3998098      0.61800681    # buck6d->(c4_c1h2o1@me)|ph-O-butyl/gaussian->(c4_c1h2o1@me)|ph-O-butyl <--> buck6d->(n4_c3cu1@dab)|dabco/gaussian->(n4_c3cu1@dab)|dabco
pair_coeff     8    14            4968       2.9411765       280.22525       7.9168726      0.60800968    # buck6d->(c4_c1h2o1@me)|ph-O-butyl/gaussian->(c4_c1h2o1@me)|ph-O-butyl <--> buck6d->(c4_c1h2n1@dab)|dabco/gaussian->(c4_c1h2n1@dab)|dabco
pair_coeff     8    15       4275.7736       3.3898305       102.89611       1.0848184      0.73006522    # buck6d->(c4_c1h2o1@me)|ph-O-butyl/gaussian->(c4_c1h2o1@me)|ph-O-butyl <--> buck6d->(h1_c1@dab)|dabco/gaussian->(h1_c1@dab)|dabco
pair_coeff     9     9            4968       2.9411765       280.22525       7.9168726      0.60800971    # buck6d->(c4_c2h2@me)|butane/gaussian->(c4_c2h2@me)|butane <--> buck6d->(c4_c2h2@me)|butane/gaussian->(c4_c2h2@me)|butane
pair_coeff     9    10            4968       2.9411765       280.22525       7.9168726      0.60800971    # buck6d->(c4_c2h2@me)|butane/gaussian->(c4_c2h2@me)|butane <--> buck6d->(c4_c1h3@me)|butane/gaussian->(c4_c1h3@me)|butane
pair_coeff     9    11       4275.7736       3.3898305       102.89611       1.0848184      0.73006542    # buck6d->(c4_c2h2@me)|butane/gaussian->(c4_c2h2@me)|butane <--> buck6d->(h1_c1@ph)|benzene/gaussian->(h1_c1@ph)|benzene
pair_coeff     9    12       4275.7736       3.3898305       102.89611       1.0848184      0.73006542    # buck6d->(c4_c2h2@me)|butane/gaussian->(c4_c2h2@me)|butane <--> buck6d->(h1_c1@me)|butane/gaussian->(h1_c1@me)|butane
pair_coeff     9    13       6269.5148         3.02267        300.1523       5.3998098      0.61800681    # buck6d->(c4_c2h2@me)|butane/gaussian->(c4_c2h2@me)|butane <--> buck6d->(n4_c3cu1@dab)|dabco/gaussian->(n4_c3cu1@dab)|dabco
pair_coeff     9    14            4968       2.9411765       280.22525       7.9168726      0.60800968    # buck6d->(c4_c2h2@me)|butane/gaussian->(c4_c2h2@me)|butane <--> buck6d->(c4_c1h2n1@dab)|dabco/gaussian->(c4_c1h2n1@dab)|dabco
pair_coeff     9    15       4275.7736       3.3898305       102.89611       1.0848184      0.73006522    # buck6d->(c4_c2h2@me)|butane/gaussian->(c4_c2h2@me)|butane <--> buck6d->(h1_c1@dab)|dabco/gaussian->(h1_c1@dab)|dabco
pair_coeff    10    10            4968       2.9411765       280.22525       7.9168726      0.60800971    # buck6d->(c4_c1h3@me)|butane/gaussian->(c4_c1h3@me)|butane <--> buck6d->(c4_c1h3@me)|butane/gaussian->(c4_c1h3@me)|butane
pair_coeff    10    11       4275.7736       3.3898305       102.89611       1.0848184      0.73006542    # buck6d->(c4_c1h3@me)|butane/gaussian->(c4_c1h3@me)|butane <--> buck6d->(h1_c1@ph)|benzene/gaussian->(h1_c1@ph)|benzene
pair_coeff    10    12       4275.7736       3.3898305       102.89611       1.0848184      0.73006542    # buck6d->(c4_c1h3@me)|butane/gaussian->(c4_c1h3@me)|butane <--> buck6d->(h1_c1@me)|butane/gaussian->(h1_c1@me)|butane
pair_coeff    10    13       6269.5148         3.02267        300.1523       5.3998098      0.61800681    # buck6d->(c4_c1h3@me)|butane/gaussian->(c4_c1h3@me)|butane <--> buck6d->(n4_c3cu1@dab)|dabco/gaussian->(n4_c3cu1@dab)|dabco
pair_coeff    10    14            4968       2.9411765       280.22525       7.9168726      0.60800968    # buck6d->(c4_c1h3@me)|butane/gaussian->(c4_c1h3@me)|butane <--> buck6d->(c4_c1h2n1@dab)|dabco/gaussian->(c4_c1h2n1@dab)|dabco
pair_coeff    10    15       4275.7736       3.3898305       102.89611       1.0848184      0.73006522    # buck6d->(c4_c1h3@me)|butane/gaussian->(c4_c1h3@me)|butane <--> buck6d->(h1_c1@dab)|dabco/gaussian->(h1_c1@dab)|dabco
pair_coeff    11    11            3680               4          32.805      0.10690769       0.9771554    # buck6d->(h1_c1@ph)|benzene/gaussian->(h1_c1@ph)|benzene <--> buck6d->(h1_c1@ph)|benzene/gaussian->(h1_c1@ph)|benzene
pair_coeff    11    12            3680               4          32.805      0.10690769       0.9771554    # buck6d->(h1_c1@ph)|benzene/gaussian->(h1_c1@ph)|benzene <--> buck6d->(h1_c1@me)|butane/gaussian->(h1_c1@me)|butane
pair_coeff    11    13       5395.9392       3.4985423       107.44754      0.69731507      0.74756462    # buck6d->(h1_c1@ph)|benzene/gaussian->(h1_c1@ph)|benzene <--> buck6d->(n4_c3cu1@dab)|dabco/gaussian->(n4_c3cu1@dab)|dabco
pair_coeff    11    14       4275.7736       3.3898305       102.89611       1.0848184      0.73006537    # buck6d->(h1_c1@ph)|benzene/gaussian->(h1_c1@ph)|benzene <--> buck6d->(c4_c1h2n1@dab)|dabco/gaussian->(c4_c1h2n1@dab)|dabco
pair_coeff    11    15            3680               4          32.805      0.10690769      0.97715493    # buck6d->(h1_c1@ph)|benzene/gaussian->(h1_c1@ph)|benzene <--> buck6d->(h1_c1@dab)|dabco/gaussian->(h1_c1@dab)|dabco
pair_coeff    12    12            3680               4          32.805      0.10690769       0.9771554    # buck6d->(h1_c1@me)|butane/gaussian->(h1_c1@me)|butane <--> buck6d->(h1_c1@me)|butane/gaussian->(h1_c1@me)|butane
pair_coeff    12    13       5395.9392       3.4985423       107.44754      0.69731507      0.74756462    # buck6d->(h1_c1@me)|butane/gaussian->(h1_c1@me)|butane <--> buck6d->(n4_c3cu1@dab)|dabco/gaussian->(n4_c3cu1@dab)|dabco
pair_coeff    12    14       4275.7736       3.3898305       102.89611       1.0848184      0.73006537    # buck6d->(h1_c1@me)|butane/gaussian->(h1_c1@me)|butane <--> buck6d->(c4_c1h2n1@dab)|dabco/gaussian->(c4_c1h2n1@dab)|dabco
pair_coeff    12    15            3680               4          32.805      0.10690769      0.97715493    # buck6d->(h1_c1@me)|butane/gaussian->(h1_c1@me)|butane <--> buck6d->(h1_c1@dab)|dabco/gaussian->(h1_c1@dab)|dabco
pair_coeff    13    13            7912       3.1088083       320.01829       3.6436247      0.62851383    # buck6d->(n4_c3cu1@dab)|dabco/gaussian->(n4_c3cu1@dab)|dabco <--> buck6d->(n4_c3cu1@dab)|dabco/gaussian->(n4_c3cu1@dab)|dabco
pair_coeff    13    14       6269.5148         3.02267        300.1523       5.3998098      0.61800678    # buck6d->(n4_c3cu1@dab)|dabco/gaussian->(n4_c3cu1@dab)|dabco <--> buck6d->(c4_c1h2n1@dab)|dabco/gaussian->(c4_c1h2n1@dab)|dabco
pair_coeff    13    15       5395.9392       3.4985423       107.44754      0.69731507       0.7475644    # buck6d->(n4_c3cu1@dab)|dabco/gaussian->(n4_c3cu1@dab)|dabco <--> buck6d->(h1_c1@dab)|dabco/gaussian->(h1_c1@dab)|dabco
pair_coeff    14    14            4968       2.9411765       280.22525       7.9168726      0.60800966    # buck6d->(c4_c1h2n1@dab)|dabco/gaussian->(c4_c1h2n1@dab)|dabco <--> buck6d->(c4_c1h2n1@dab)|dabco/gaussian->(c4_c1h2n1@dab)|dabco
pair_coeff    14    15       4275.7736       3.3898305       102.89611       1.0848184      0.73006518    # buck6d->(c4_c1h2n1@dab)|dabco/gaussian->(c4_c1h2n1@dab)|dabco <--> buck6d->(h1_c1@dab)|dabco/gaussian->(h1_c1@dab)|dabco
pair_coeff    15    15            3680               4          32.805      0.10690769      0.97715446    # buck6d->(h1_c1@dab)|dabco/gaussian->(h1_c1@dab)|dabco <--> buck6d->(h1_c1@dab)|dabco/gaussian->(h1_c1@dab)|dabco

bond_style hybrid class2 morse harmonic

bond_coeff    13 class2     1.529408   314.283599  -801.423177  1192.116976    # mm3->(c4_c2h2@me,c4_c2h2@me)|butane
bond_coeff    19 class2     1.101000   365.095500  -930.993525  1384.852868    # mm3->(c4_c1h2n1@dab,h1_c1@dab)|dabco
bond_coeff    16 class2     1.099390   374.841138  -955.844901  1421.819290    # mm3->(c4_c1h3@me,h1_c1@me)|butane
bond_coeff    11 class2     1.515294   290.719566  -741.334894  1102.735655    # mm3->(c4_c1h2o1@me,c4_c2h2@me)|ph-O-butyl
bond_coeff    14 class2     1.101213   365.915223  -933.083819  1387.962181    # mm3->(c4_c2h2@me,h1_c1@me)|butane
bond_coeff     1 class2     2.992000    18.056940   -46.045197    68.492231    # mm3->(cu6_cu1n1o4@cu2p,cu6_cu1n1o4@cu2p)|CuPW_dabco
bond_coeff     7 class2     1.394074   455.360160 -1161.168407  1727.238006    # mm3->(c3_c2h1@ph,c3_c2o1@ph)|ph-O-butyl
bond_coeff     3 morse    25.000000    1.066139     2.306000    # morse->(cu6_cu1n1o4@cu2p,n4_c3cu1@dab)|CuPW_dabco
bond_coeff     9 class2     1.357631   390.806068  -996.555472  1482.376265    # mm3->(c3_c2o1@ph,o2_c2@eth)|ph-O-butyl