 # File generated with Atomsk by sandro_w on 2019-10-07 10:06:50
1.000000
      7.85024661        0.00000000        0.00000000
      0.00000000        5.97946266        0.00000000
     -4.82092532        0.00000000        7.13424186
C  H 
   20      16
Cartesian
      3.89084361        0.14928059        2.33147888
      4.61983681        1.02102059        1.52551888
      4.99371661        0.63555259        0.23778288
      0.88952561        1.50878759        6.55467888
      1.27574561        1.11486759        5.27547888
      4.85520461        3.13900759        4.80275888
      4.12621161        4.01074759        5.60872888
      3.75233261        3.62528759        6.89645888
      7.85652561        4.49851759        0.57956588
      7.47030561        4.10459759        1.85875888
      8.78032561        5.83017759        4.80275888
      8.05133561        4.95843759        5.60872888
      7.67745561        5.34390759        6.89645888
     11.78164561        4.47067759        0.57956588
     11.39542561        4.86459759        1.85875888
      7.81596561        2.84044759        2.33147888
      8.54495561        1.96870759        1.52551888
      8.91883561        2.35417759        0.23778288
      4.81464861        1.48093759        6.55467888
      5.20087061        1.87486759        5.27547888
      3.58821561        0.45931259        3.32766888
      4.88703961        2.00503759        1.90052888
      1.15935561        2.49536759        6.91808888
      1.84708561        1.79551759        4.64796888
      5.15783561        3.44904759        3.80657888
      3.85900861        4.99476759        5.23371888
      7.58669561        5.48509759        0.21615788
      6.89895561        4.78524759        2.48627888
      9.08295561        5.52014759        3.80657888
      7.78413561        3.97442759        5.23371888
     11.51181561        3.48409759        0.21615788
     10.82408561        4.18394759        2.48627888
      7.51333561        2.53041759        3.32766888
      8.81216561        0.98469659        1.90052888
      5.08448061        0.49436259        6.91808888
      5.77221561        1.19421759        4.64796888
