generated by phonopy
   1.0
    23.5507398300000013    0.0000000000000000    0.0000000000000000
     0.0000000000000000   17.9383879800000017    0.0000000000000000
   -14.4627759599999983    0.0000000000000000   21.4027255800000020
C H
 540  432
Direct
  0.2321085402229567  0.0083218508913085  0.1089337370273380
  0.5654418735562901  0.0083218508913085  0.1089337370273380
  0.8987752068896234  0.0083218508913085  0.1089337370273380
  0.2321085402229567  0.3416551842246418  0.1089337370273380
  0.5654418735562901  0.3416551842246418  0.1089337370273380
  0.8987752068896234  0.3416551842246418  0.1089337370273380
  0.2321085402229567  0.6749885175579751  0.1089337370273380
  0.5654418735562901  0.6749885175579751  0.1089337370273380
  0.8987752068896234  0.6749885175579751  0.1089337370273380
  0.2321085402229567  0.0083218508913085  0.4422670703606713
  0.5654418735562901  0.0083218508913085  0.4422670703606713
  0.8987752068896234  0.0083218508913085  0.4422670703606713
  0.2321085402229567  0.3416551842246418  0.4422670703606713
  0.5654418735562901  0.3416551842246418  0.4422670703606713
  0.8987752068896234  0.3416551842246418  0.4422670703606713
  0.2321085402229567  0.6749885175579751  0.4422670703606713
  0.5654418735562901  0.6749885175579751  0.4422670703606713
  0.8987752068896234  0.6749885175579751  0.4422670703606713
  0.2321085402229567  0.0083218508913085  0.7756004036940045
  0.5654418735562901  0.0083218508913085  0.7756004036940045
  0.8987752068896234  0.0083218508913085  0.7756004036940045
  0.2321085402229567  0.3416551842246418  0.7756004036940045
  0.5654418735562901  0.3416551842246418  0.7756004036940045
  0.8987752068896234  0.3416551842246418  0.7756004036940045
  0.2321085402229567  0.6749885175579751  0.7756004036940045
  0.5654418735562901  0.6749885175579751  0.7756004036940045
  0.8987752068896234  0.6749885175579751  0.7756004036940045
  0.2399371729498656  0.0569181908172777  0.0712768508990994
  0.5732705062831989  0.0569181908172777  0.0712768508990994
  0.9066038396165321  0.0569181908172777  0.0712768508990994
  0.2399371729498656  0.3902515241506109  0.0712768508990994
  0.5732705062831989  0.3902515241506109  0.0712768508990994
  0.9066038396165321  0.3902515241506109  0.0712768508990994
  0.2399371729498656  0.7235848574839443  0.0712768508990994
  0.5732705062831989  0.7235848574839443  0.0712768508990994
  0.9066038396165321  0.7235848574839443  0.0712768508990994
  0.2399371729498656  0.0569181908172777  0.4046101842324327
  0.5732705062831989  0.0569181908172777  0.4046101842324327
  0.9066038396165321  0.0569181908172777  0.4046101842324327
  0.2399371729498656  0.3902515241506109  0.4046101842324327
  0.5732705062831989  0.3902515241506109  0.4046101842324327
  0.9066038396165321  0.3902515241506109  0.4046101842324327
  0.2399371729498656  0.7235848574839443  0.4046101842324327
  0.5732705062831989  0.7235848574839443  0.4046101842324327
  0.9066038396165321  0.7235848574839443  0.4046101842324327
  0.2399371729498656  0.0569181908172777  0.7379435175657659
  0.5732705062831989  0.0569181908172777  0.7379435175657659
  0.9066038396165321  0.0569181908172777  0.7379435175657659
  0.2399371729498656  0.3902515241506109  0.7379435175657659
  0.5732705062831989  0.3902515241506109  0.7379435175657659
  0.9066038396165321  0.3902515241506109  0.7379435175657659
  0.2399371729498656  0.7235848574839443  0.7379435175657659
  0.5732705062831989  0.7235848574839443  0.7379435175657659
  0.9066038396165321  0.7235848574839443  0.7379435175657659
  0.2188634896938808  0.0354297493569988  0.0111099345319924
  0.5521968230272141  0.0354297493569988  0.0111099345319924
  0.8855301563605474  0.0354297493569988  0.0111099345319924
  0.2188634896938808  0.3687630826903321  0.0111099345319924
  0.5521968230272141  0.3687630826903321  0.0111099345319924
  0.8855301563605474  0.3687630826903321  0.0111099345319924
  0.2188634896938808  0.7020964160236655  0.0111099345319924
  0.5521968230272141  0.7020964160236655  0.0111099345319924
  0.8855301563605474  0.7020964160236655  0.0111099345319924
  0.2188634896938808  0.0354297493569988  0.3444432678653258
  0.5521968230272141  0.0354297493569988  0.3444432678653258
  0.8855301563605474  0.0354297493569988  0.3444432678653258
  0.2188634896938808  0.3687630826903321  0.3444432678653258
  0.5521968230272141  0.3687630826903321  0.3444432678653258
  0.8855301563605474  0.3687630826903321  0.3444432678653258
  0.2188634896938808  0.7020964160236655  0.3444432678653258
  0.5521968230272141  0.7020964160236655  0.3444432678653258
  0.8855301563605474  0.7020964160236655  0.3444432678653258
  0.2188634896938808  0.0354297493569988  0.6777766011986591
  0.5521968230272141  0.0354297493569988  0.6777766011986591
  0.8855301563605474  0.0354297493569988  0.6777766011986591
  0.2188634896938808  0.3687630826903321  0.6777766011986591
  0.5521968230272141  0.3687630826903321  0.6777766011986591
  0.8855301563605474  0.3687630826903321  0.6777766011986591
  0.2188634896938808  0.7020964160236655  0.6777766011986591
  0.5521968230272141  0.7020964160236655  0.6777766011986591
  0.8855301563605474  0.7020964160236655  0.6777766011986591
  0.2258448958194779  0.0841094301049898  0.3062543999594654
  0.5591782291528112  0.0841094301049898  0.3062543999594654
  0.8925115624861446  0.0841094301049898  0.3062543999594654
  0.2258448958194779  0.4174427634383232  0.3062543999594654
  0.5591782291528112  0.4174427634383232  0.3062543999594654
  0.8925115624861446  0.4174427634383232  0.3062543999594654
  0.2258448958194779  0.7507760967716566  0.3062543999594654
  0.5591782291528112  0.7507760967716566  0.3062543999594654
  0.8925115624861446  0.7507760967716566  0.3062543999594654
  0.2258448958194779  0.0841094301049898  0.6395877332927986
  0.5591782291528112  0.0841094301049898  0.6395877332927986
  0.8925115624861446  0.0841094301049898  0.6395877332927986
  0.2258448958194779  0.4174427634383232  0.6395877332927986
  0.5591782291528112  0.4174427634383232  0.6395877332927986
  0.8925115624861446  0.4174427634383232  0.6395877332927986
  0.2258448958194779  0.7507760967716566  0.6395877332927986
  0.5591782291528112  0.7507760967716566  0.6395877332927986
  0.8925115624861446  0.7507760967716566  0.6395877332927986
  0.2258448958194779  0.0841094301049898  0.9729210666261319
  0.5591782291528112  0.0841094301049898  0.9729210666261319
  0.8925115624861446  0.0841094301049898  0.9729210666261319
  0.2258448958194779  0.4174427634383232  0.9729210666261319
  0.5591782291528112  0.4174427634383232  0.9729210666261319
  0.8925115624861446  0.4174427634383232  0.9729210666261319
  0.2258448958194779  0.7507760967716566  0.9729210666261319
  0.5591782291528112  0.7507760967716566  0.9729210666261319
  0.8925115624861446  0.7507760967716566  0.9729210666261319
  0.2055401207135662  0.0621498203318490  0.2464863113009179
  0.5388734540468995  0.0621498203318490  0.2464863113009179
  0.8722067873802328  0.0621498203318490  0.2464863113009179
  0.2055401207135662  0.3954831536651824  0.2464863113009179
  0.5388734540468995  0.3954831536651824  0.2464863113009179
  0.8722067873802328  0.3954831536651824  0.2464863113009179
  0.2055401207135662  0.7288164869985156  0.2464863113009179
  0.5388734540468995  0.7288164869985156  0.2464863113009179
  0.8722067873802328  0.7288164869985156  0.2464863113009179
  0.2055401207135662  0.0621498203318490  0.5798196446342512
  0.5388734540468995  0.0621498203318490  0.5798196446342512
  0.8722067873802328  0.0621498203318490  0.5798196446342512
  0.2055401207135662  0.3954831536651824  0.5798196446342512
  0.5388734540468995  0.3954831536651824  0.5798196446342512
  0.8722067873802328  0.3954831536651824  0.5798196446342512
  0.2055401207135662  0.7288164869985156  0.5798196446342512
  0.5388734540468995  0.7288164869985156  0.5798196446342512
  0.8722067873802328  0.7288164869985156  0.5798196446342512
  0.2055401207135662  0.0621498203318490  0.9131529779675845
  0.5388734540468995  0.0621498203318490  0.9131529779675845
  0.8722067873802328  0.0621498203318490  0.9131529779675845
  0.2055401207135662  0.3954831536651824  0.9131529779675845
  0.5388734540468995  0.3954831536651824  0.9131529779675845
  0.8722067873802328  0.3954831536651824  0.9131529779675845
  0.2055401207135662  0.7288164869985156  0.9131529779675845
  0.5388734540468995  0.7288164869985156  0.9131529779675845
  0.8722067873802328  0.7288164869985156  0.9131529779675845
  0.3439655392913084  0.1749882761761963  0.2243994047416086
  0.6772988726246416  0.1749882761761963  0.2243994047416086
  0.0106322059579749  0.1749882761761963  0.2243994047416086
  0.3439655392913084  0.5083216095095295  0.2243994047416086
  0.6772988726246416  0.5083216095095295  0.2243994047416086
  0.0106322059579749  0.5083216095095295  0.2243994047416086
  0.3439655392913084  0.8416549428428628  0.2243994047416086
  0.6772988726246416  0.8416549428428628  0.2243994047416086
  0.0106322059579749  0.8416549428428628  0.2243994047416086
  0.3439655392913084  0.1749882761761963  0.5577327380749419
  0.6772988726246416  0.1749882761761963  0.5577327380749419
  0.0106322059579749  0.1749882761761963  0.5577327380749419
  0.3439655392913084  0.5083216095095295  0.5577327380749419
  0.6772988726246416  0.5083216095095295  0.5577327380749419
  0.0106322059579749  0.5083216095095295  0.5577327380749419
  0.3439655392913084  0.8416549428428628  0.5577327380749419
  0.6772988726246416  0.8416549428428628  0.5577327380749419
  0.0106322059579749  0.8416549428428628  0.5577327380749419
  0.3439655392913084  0.1749882761761963  0.8910660714082752
  0.6772988726246416  0.1749882761761963  0.8910660714082752
  0.0106322059579749  0.1749882761761963  0.8910660714082752
  0.3439655392913084  0.5083216095095295  0.8910660714082752
  0.6772988726246416  0.5083216095095295  0.8910660714082752
  0.0106322059579749  0.5083216095095295  0.8910660714082752
  0.3439655392913084  0.8416549428428628  0.8910660714082752
  0.6772988726246416  0.8416549428428628  0.8910660714082752
  0.0106322059579749  0.8416549428428628  0.8910660714082752
  0.3361372019880645  0.2235846161021655  0.2620567581000587
  0.6694705353213977  0.2235846161021655  0.2620567581000587
  0.0028038686547309  0.2235846161021655  0.2620567581000587
  0.3361372019880645  0.5569179494354988  0.2620567581000587
  0.6694705353213977  0.5569179494354988  0.2620567581000587
  0.0028038686547309  0.5569179494354988  0.2620567581000587
  0.3361372019880645  0.8902512827688321  0.2620567581000587
  0.6694705353213977  0.8902512827688321  0.2620567581000587
  0.0028038686547309  0.8902512827688321  0.2620567581000587
  0.3361372019880645  0.2235846161021655  0.5953900914333921
  0.6694705353213977  0.2235846161021655  0.5953900914333921
  0.0028038686547309  0.2235846161021655  0.5953900914333921
  0.3361372019880645  0.5569179494354988  0.5953900914333921
  0.6694705353213977  0.5569179494354988  0.5953900914333921
  0.0028038686547309  0.5569179494354988  0.5953900914333921
  0.3361372019880645  0.8902512827688321  0.5953900914333921
  0.6694705353213977  0.8902512827688321  0.5953900914333921
  0.0028038686547309  0.8902512827688321  0.5953900914333921
  0.3361372019880645  0.2235846161021655  0.9287234247667253
  0.6694705353213977  0.2235846161021655  0.9287234247667253
  0.0028038686547309  0.2235846161021655  0.9287234247667253
  0.3361372019880645  0.5569179494354988  0.9287234247667253
  0.6694705353213977  0.5569179494354988  0.9287234247667253
  0.0028038686547309  0.5569179494354988  0.9287234247667253
  0.3361372019880645  0.8902512827688321  0.9287234247667253
  0.6694705353213977  0.8902512827688321  0.9287234247667253
  0.0028038686547309  0.8902512827688321  0.9287234247667253
  0.3572107470544404  0.2020966206128406  0.3222233941290388
  0.6905440803877738  0.2020966206128406  0.3222233941290388
  0.0238774137211071  0.2020966206128406  0.3222233941290388
  0.3572107470544404  0.5354299539461739  0.3222233941290388
  0.6905440803877738  0.5354299539461739  0.3222233941290388
  0.0238774137211071  0.5354299539461739  0.3222233941290388
  0.3572107470544404  0.8687632872795072  0.3222233941290388
  0.6905440803877738  0.8687632872795072  0.3222233941290388
  0.0238774137211071  0.8687632872795072  0.3222233941290388
  0.3572107470544404  0.2020966206128406  0.6555567274623720
  0.6905440803877738  0.2020966206128406  0.6555567274623720
  0.0238774137211071  0.2020966206128406  0.6555567274623720
  0.3572107470544404  0.5354299539461739  0.6555567274623720
  0.6905440803877738  0.5354299539461739  0.6555567274623720
  0.0238774137211071  0.5354299539461739  0.6555567274623720
  0.3572107470544404  0.8687632872795072  0.6555567274623720
  0.6905440803877738  0.8687632872795072  0.6555567274623720
  0.0238774137211071  0.8687632872795072  0.6555567274623720
  0.3572107470544404  0.2020966206128406  0.9888900607957054
  0.6905440803877738  0.2020966206128406  0.9888900607957054
  0.0238774137211071  0.2020966206128406  0.9888900607957054
  0.3572107470544404  0.5354299539461739  0.9888900607957054
  0.6905440803877738  0.5354299539461739  0.9888900607957054
  0.0238774137211071  0.5354299539461739  0.9888900607957054
  0.3572107470544404  0.8687632872795072  0.9888900607957054
  0.6905440803877738  0.8687632872795072  0.9888900607957054
  0.0238774137211071  0.8687632872795072  0.9888900607957054
  0.3502295119312743  0.2507760226289854  0.0270790688706293
  0.6835628452646075  0.2507760226289854  0.0270790688706293
  0.0168961785979409  0.2507760226289854  0.0270790688706293
  0.3502295119312743  0.5841093559623187  0.0270790688706293
  0.6835628452646075  0.5841093559623187  0.0270790688706293
  0.0168961785979409  0.5841093559623187  0.0270790688706293
  0.3502295119312743  0.9174426892956520  0.0270790688706293
  0.6835628452646075  0.9174426892956520  0.0270790688706293
  0.0168961785979409  0.9174426892956520  0.0270790688706293
  0.3502295119312743  0.2507760226289854  0.3604124022039626
  0.6835628452646075  0.2507760226289854  0.3604124022039626
  0.0168961785979409  0.2507760226289854  0.3604124022039626
  0.3502295119312743  0.5841093559623187  0.3604124022039626
  0.6835628452646075  0.5841093559623187  0.3604124022039626
  0.0168961785979409  0.5841093559623187  0.3604124022039626
  0.3502295119312743  0.9174426892956520  0.3604124022039626
  0.6835628452646075  0.9174426892956520  0.3604124022039626
  0.0168961785979409  0.9174426892956520  0.3604124022039626
  0.3502295119312743  0.2507760226289854  0.6937457355372959
  0.6835628452646075  0.2507760226289854  0.6937457355372959
  0.0168961785979409  0.2507760226289854  0.6937457355372959
  0.3502295119312743  0.5841093559623187  0.6937457355372959
  0.6835628452646075  0.5841093559623187  0.6937457355372959
  0.0168961785979409  0.5841093559623187  0.6937457355372959
  0.3502295119312743  0.9174426892956520  0.6937457355372959
  0.6835628452646075  0.9174426892956520  0.6937457355372959
  0.0168961785979409  0.9174426892956520  0.6937457355372959
  0.3705340861852321  0.2288164128558446  0.0868468304680286
  0.7038674195185655  0.2288164128558446  0.0868468304680286
  0.0372007528518987  0.2288164128558446  0.0868468304680286
  0.3705340861852321  0.5621497461891779  0.0868468304680286
  0.7038674195185655  0.5621497461891779  0.0868468304680286
  0.0372007528518987  0.5621497461891779  0.0868468304680286
  0.3705340861852321  0.8954830795225113  0.0868468304680286
  0.7038674195185655  0.8954830795225113  0.0868468304680286
  0.0372007528518987  0.8954830795225113  0.0868468304680286
  0.3705340861852321  0.2288164128558446  0.4201801638013619
  0.7038674195185655  0.2288164128558446  0.4201801638013619
  0.0372007528518987  0.2288164128558446  0.4201801638013619
  0.3705340861852321  0.5621497461891779  0.4201801638013619
  0.7038674195185655  0.5621497461891779  0.4201801638013619
  0.0372007528518987  0.5621497461891779  0.4201801638013619
  0.3705340861852321  0.8954830795225113  0.4201801638013619
  0.7038674195185655  0.8954830795225113  0.4201801638013619
  0.0372007528518987  0.8954830795225113  0.4201801638013619
  0.3705340861852321  0.2288164128558446  0.7535134971346953
  0.7038674195185655  0.2288164128558446  0.7535134971346953
  0.0372007528518987  0.2288164128558446  0.7535134971346953
  0.3705340861852321  0.5621497461891779  0.7535134971346953
  0.7038674195185655  0.5621497461891779  0.7535134971346953
  0.0372007528518987  0.5621497461891779  0.7535134971346953
  0.3705340861852321  0.8954830795225113  0.7535134971346953
  0.7038674195185655  0.8954830795225113  0.7535134971346953
  0.0372007528518987  0.8954830795225113  0.7535134971346953
  0.5106321080841920  0.3250112326982906  0.2243994047416086
  0.8439654414175253  0.3250112326982906  0.2243994047416086
  0.1772987747508585  0.3250112326982906  0.2243994047416086
  0.5106321080841920  0.6583445660316239  0.2243994047416086
  0.8439654414175253  0.6583445660316239  0.2243994047416086
  0.1772987747508585  0.6583445660316239  0.2243994047416086
  0.5106321080841920  0.9916778993649573  0.2243994047416086
  0.8439654414175253  0.9916778993649573  0.2243994047416086
  0.1772987747508585  0.9916778993649573  0.2243994047416086
  0.5106321080841920  0.3250112326982906  0.5577327380749419
  0.8439654414175253  0.3250112326982906  0.5577327380749419
  0.1772987747508585  0.3250112326982906  0.5577327380749419
  0.5106321080841920  0.6583445660316239  0.5577327380749419
  0.8439654414175253  0.6583445660316239  0.5577327380749419
  0.1772987747508585  0.6583445660316239  0.5577327380749419
  0.5106321080841920  0.9916778993649573  0.5577327380749419
  0.8439654414175253  0.9916778993649573  0.5577327380749419
  0.1772987747508585  0.9916778993649573  0.5577327380749419
  0.5106321080841920  0.3250112326982906  0.8910660714082752
  0.8439654414175253  0.3250112326982906  0.8910660714082752
  0.1772987747508585  0.3250112326982906  0.8910660714082752
  0.5106321080841920  0.6583445660316239  0.8910660714082752
  0.8439654414175253  0.6583445660316239  0.8910660714082752
  0.1772987747508585  0.6583445660316239  0.8910660714082752
  0.5106321080841920  0.9916778993649573  0.8910660714082752
  0.8439654414175253  0.9916778993649573  0.8910660714082752
  0.1772987747508585  0.9916778993649573  0.8910660714082752
  0.5028038981654812  0.2764148927723215  0.2620567581000587
  0.8361372314988147  0.2764148927723215  0.2620567581000587
  0.1694705648321480  0.2764148927723215  0.2620567581000587
  0.5028038981654812  0.6097482261056548  0.2620567581000587
  0.8361372314988147  0.6097482261056548  0.2620567581000587
  0.1694705648321480  0.6097482261056548  0.2620567581000587
  0.5028038981654812  0.9430815594389881  0.2620567581000587
  0.8361372314988147  0.9430815594389881  0.2620567581000587
  0.1694705648321480  0.9430815594389881  0.2620567581000587
  0.5028038981654812  0.2764148927723215  0.5953900914333921
  0.8361372314988147  0.2764148927723215  0.5953900914333921
  0.1694705648321480  0.2764148927723215  0.5953900914333921
  0.5028038981654812  0.6097482261056548  0.5953900914333921
  0.8361372314988147  0.6097482261056548  0.5953900914333921
  0.1694705648321480  0.6097482261056548  0.5953900914333921
  0.5028038981654812  0.9430815594389881  0.5953900914333921
  0.8361372314988147  0.9430815594389881  0.5953900914333921
  0.1694705648321480  0.9430815594389881  0.5953900914333921
  0.5028038981654812  0.2764148927723215  0.9287234247667253
  0.8361372314988147  0.2764148927723215  0.9287234247667253
  0.1694705648321480  0.2764148927723215  0.9287234247667253
  0.5028038981654812  0.6097482261056548  0.9287234247667253
  0.8361372314988147  0.6097482261056548  0.9287234247667253
  0.1694705648321480  0.6097482261056548  0.9287234247667253
  0.5028038981654812  0.9430815594389881  0.9287234247667253
  0.8361372314988147  0.9430815594389881  0.9287234247667253
  0.1694705648321480  0.9430815594389881  0.9287234247667253
  0.5238774007703462  0.2979034457253388  0.3222233941290388
  0.8572107341036795  0.2979034457253388  0.3222233941290388
  0.1905440674370129  0.2979034457253388  0.3222233941290388
  0.5238774007703462  0.6312367790586721  0.3222233941290388
  0.8572107341036795  0.6312367790586721  0.3222233941290388
  0.1905440674370129  0.6312367790586721  0.3222233941290388
  0.5238774007703462  0.9645701123920054  0.3222233941290388
  0.8572107341036795  0.9645701123920054  0.3222233941290388
  0.1905440674370129  0.9645701123920054  0.3222233941290388
  0.5238774007703462  0.2979034457253388  0.6555567274623720
  0.8572107341036795  0.2979034457253388  0.6555567274623720
  0.1905440674370129  0.2979034457253388  0.6555567274623720
  0.5238774007703462  0.6312367790586721  0.6555567274623720
  0.8572107341036795  0.6312367790586721  0.6555567274623720
  0.1905440674370129  0.6312367790586721  0.6555567274623720
  0.5238774007703462  0.9645701123920054  0.6555567274623720
  0.8572107341036795  0.9645701123920054  0.6555567274623720
  0.1905440674370129  0.9645701123920054  0.6555567274623720
  0.5238774007703462  0.2979034457253388  0.9888900607957054
  0.8572107341036795  0.2979034457253388  0.9888900607957054
  0.1905440674370129  0.2979034457253388  0.9888900607957054
  0.5238774007703462  0.6312367790586721  0.9888900607957054
  0.8572107341036795  0.6312367790586721  0.9888900607957054
  0.1905440674370129  0.6312367790586721  0.9888900607957054
  0.5238774007703462  0.9645701123920054  0.9888900607957054
  0.8572107341036795  0.9645701123920054  0.9888900607957054
  0.1905440674370129  0.9645701123920054  0.9888900607957054
  0.5168960382626469  0.2492240437091940  0.0270790688706293
  0.8502293715959801  0.2492240437091940  0.0270790688706293
  0.1835627049293134  0.2492240437091940  0.0270790688706293
  0.5168960382626469  0.5825573770425273  0.0270790688706293
  0.8502293715959801  0.5825573770425273  0.0270790688706293
  0.1835627049293134  0.5825573770425273  0.0270790688706293
  0.5168960382626469  0.9158907103758607  0.0270790688706293
  0.8502293715959801  0.9158907103758607  0.0270790688706293
  0.1835627049293134  0.9158907103758607  0.0270790688706293
  0.5168960382626469  0.2492240437091940  0.3604124022039626
  0.8502293715959801  0.2492240437091940  0.3604124022039626
  0.1835627049293134  0.2492240437091940  0.3604124022039626
  0.5168960382626469  0.5825573770425273  0.3604124022039626
  0.8502293715959801  0.5825573770425273  0.3604124022039626
  0.1835627049293134  0.5825573770425273  0.3604124022039626
  0.5168960382626469  0.9158907103758607  0.3604124022039626
  0.8502293715959801  0.9158907103758607  0.3604124022039626
  0.1835627049293134  0.9158907103758607  0.3604124022039626
  0.5168960382626469  0.2492240437091940  0.6937457355372959
  0.8502293715959801  0.2492240437091940  0.6937457355372959
  0.1835627049293134  0.2492240437091940  0.6937457355372959
  0.5168960382626469  0.5825573770425273  0.6937457355372959
  0.8502293715959801  0.5825573770425273  0.6937457355372959
  0.1835627049293134  0.5825573770425273  0.6937457355372959
  0.5168960382626469  0.9158907103758607  0.6937457355372959
  0.8502293715959801  0.9158907103758607  0.6937457355372959
  0.1835627049293134  0.9158907103758607  0.6937457355372959
  0.5372006125166047  0.2711836534823348  0.0868468304680286
  0.8705339458499379  0.2711836534823348  0.0868468304680286
  0.2038672791832712  0.2711836534823348  0.0868468304680286
  0.5372006125166047  0.6045169868156681  0.0868468304680286
  0.8705339458499379  0.6045169868156681  0.0868468304680286
  0.2038672791832712  0.6045169868156681  0.0868468304680286
  0.5372006125166047  0.9378503201490014  0.0868468304680286
  0.8705339458499379  0.9378503201490014  0.0868468304680286
  0.2038672791832712  0.9378503201490014  0.0868468304680286
  0.5372006125166047  0.2711836534823348  0.4201801638013619
  0.8705339458499379  0.2711836534823348  0.4201801638013619
  0.2038672791832712  0.2711836534823348  0.4201801638013619
  0.5372006125166047  0.6045169868156681  0.4201801638013619
  0.8705339458499379  0.6045169868156681  0.4201801638013619
  0.2038672791832712  0.6045169868156681  0.4201801638013619
  0.5372006125166047  0.9378503201490014  0.4201801638013619
  0.8705339458499379  0.9378503201490014  0.4201801638013619
  0.2038672791832712  0.9378503201490014  0.4201801638013619
  0.5372006125166047  0.2711836534823348  0.7535134971346953
  0.8705339458499379  0.2711836534823348  0.7535134971346953
  0.2038672791832712  0.2711836534823348  0.7535134971346953
  0.5372006125166047  0.6045169868156681  0.7535134971346953
  0.8705339458499379  0.6045169868156681  0.7535134971346953
  0.2038672791832712  0.6045169868156681  0.7535134971346953
  0.5372006125166047  0.9378503201490014  0.7535134971346953
  0.8705339458499379  0.9378503201490014  0.7535134971346953
  0.2038672791832712  0.9378503201490014  0.7535134971346953
  0.3987751514773515  0.1583446401742951  0.1089337370273380
  0.7321084848106848  0.1583446401742951  0.1089337370273380
  0.0654418181440182  0.1583446401742951  0.1089337370273380
  0.3987751514773515  0.4916779735076284  0.1089337370273380
  0.7321084848106848  0.4916779735076284  0.1089337370273380
  0.0654418181440182  0.4916779735076284  0.1089337370273380
  0.3987751514773515  0.8250113068409617  0.1089337370273380
  0.7321084848106848  0.8250113068409617  0.1089337370273380
  0.0654418181440182  0.8250113068409617  0.1089337370273380
  0.3987751514773515  0.1583446401742951  0.4422670703606713
  0.7321084848106848  0.1583446401742951  0.4422670703606713
  0.0654418181440182  0.1583446401742951  0.4422670703606713
  0.3987751514773515  0.4916779735076284  0.4422670703606713
  0.7321084848106848  0.4916779735076284  0.4422670703606713
  0.0654418181440182  0.4916779735076284  0.4422670703606713
  0.3987751514773515  0.8250113068409617  0.4422670703606713
  0.7321084848106848  0.8250113068409617  0.4422670703606713
  0.0654418181440182  0.8250113068409617  0.4422670703606713
  0.3987751514773515  0.1583446401742951  0.7756004036940045
  0.7321084848106848  0.1583446401742951  0.7756004036940045
  0.0654418181440182  0.1583446401742951  0.7756004036940045
  0.3987751514773515  0.4916779735076284  0.7756004036940045
  0.7321084848106848  0.4916779735076284  0.7756004036940045
  0.0654418181440182  0.4916779735076284  0.7756004036940045
  0.3987751514773515  0.8250113068409617  0.7756004036940045
  0.7321084848106848  0.8250113068409617  0.7756004036940045
  0.0654418181440182  0.8250113068409617  0.7756004036940045
  0.4066036483274249  0.1097483002483259  0.0712768508990994
  0.7399369816607582  0.1097483002483259  0.0712768508990994
  0.0732703149940914  0.1097483002483259  0.0712768508990994
  0.4066036483274249  0.4430816335816592  0.0712768508990994
  0.7399369816607582  0.4430816335816592  0.0712768508990994
  0.0732703149940914  0.4430816335816592  0.0712768508990994
  0.4066036483274249  0.7764149669149926  0.0712768508990994
  0.7399369816607582  0.7764149669149926  0.0712768508990994
  0.0732703149940914  0.7764149669149926  0.0712768508990994
  0.4066036483274249  0.1097483002483259  0.4046101842324327
  0.7399369816607582  0.1097483002483259  0.4046101842324327
  0.0732703149940914  0.1097483002483259  0.4046101842324327
  0.4066036483274249  0.4430816335816592  0.4046101842324327
  0.7399369816607582  0.4430816335816592  0.4046101842324327
  0.0732703149940914  0.4430816335816592  0.4046101842324327
  0.4066036483274249  0.7764149669149926  0.4046101842324327
  0.7399369816607582  0.7764149669149926  0.4046101842324327
  0.0732703149940914  0.7764149669149926  0.4046101842324327
  0.4066036483274249  0.1097483002483259  0.7379435175657659
  0.7399369816607582  0.1097483002483259  0.7379435175657659
  0.0732703149940914  0.1097483002483259  0.7379435175657659
  0.4066036483274249  0.4430816335816592  0.7379435175657659
  0.7399369816607582  0.4430816335816592  0.7379435175657659
  0.0732703149940914  0.4430816335816592  0.7379435175657659
  0.4066036483274249  0.7764149669149926  0.7379435175657659
  0.7399369816607582  0.7764149669149926  0.7379435175657659
  0.0732703149940914  0.7764149669149926  0.7379435175657659
  0.3855299735637423  0.1312368532013432  0.0111099345319924
  0.7188633068970756  0.1312368532013432  0.0111099345319924
  0.0521966402304088  0.1312368532013432  0.0111099345319924
  0.3855299735637423  0.4645701865346766  0.0111099345319924
  0.7188633068970756  0.4645701865346766  0.0111099345319924
  0.0521966402304088  0.4645701865346766  0.0111099345319924
  0.3855299735637423  0.7979035198680099  0.0111099345319924
  0.7188633068970756  0.7979035198680099  0.0111099345319924
  0.0521966402304088  0.7979035198680099  0.0111099345319924
  0.3855299735637423  0.1312368532013432  0.3444432678653258
  0.7188633068970756  0.1312368532013432  0.3444432678653258
  0.0521966402304088  0.1312368532013432  0.3444432678653258
  0.3855299735637423  0.4645701865346766  0.3444432678653258
  0.7188633068970756  0.4645701865346766  0.3444432678653258
  0.0521966402304088  0.4645701865346766  0.3444432678653258
  0.3855299735637423  0.7979035198680099  0.3444432678653258
  0.7188633068970756  0.7979035198680099  0.3444432678653258
  0.0521966402304088  0.7979035198680099  0.3444432678653258
  0.3855299735637423  0.1312368532013432  0.6777766011986591
  0.7188633068970756  0.1312368532013432  0.6777766011986591
  0.0521966402304088  0.1312368532013432  0.6777766011986591
  0.3855299735637423  0.4645701865346766  0.6777766011986591
  0.7188633068970756  0.4645701865346766  0.6777766011986591
  0.0521966402304088  0.4645701865346766  0.6777766011986591
  0.3855299735637423  0.7979035198680099  0.6777766011986591
  0.7188633068970756  0.7979035198680099  0.6777766011986591
  0.0521966402304088  0.7979035198680099  0.6777766011986591
  0.3925115495353837  0.0825568937215060  0.3062543999594654