#scaled (0.995368) poscar               
   1.0000000000000000     
     7.8211733677777451    0.0000000000000000   -0.0854183280417467
     0.0000000000000000    5.8206537382917363    0.0000000000000000
    -4.8324748033736586    0.0000000000000000    6.9741666607636530
   C    H 
    20    16
Direct
  0.0798726525032072  0.0225010561534397  0.3344833453550834
  0.1114201607386530  0.1708467337168681  0.2266945852973287
  0.0480545318287453  0.1098706645280775  0.0382309004969217
  0.0770612909235363  0.2594668400089604  0.9235319606371963
  0.0152774477674224  0.1944584081753074  0.7411387197062304
  0.4201273487344161  0.5225010561534396  0.6655166546449238
  0.3885798404989704  0.6708467337168682  0.7733054147026711
  0.4519454694088781  0.6098706645280775  0.9617690995030926
  0.4229387090764636  0.7594668400089603  0.0764680393628036
  0.4847225534702010  0.6944584081753074  0.2588612802937704
  0.9201273487344092  0.9774989438465604  0.6655166546449238
  0.8885798404989704  0.8291532662831318  0.7733054147026711
  0.9519454694088779  0.8901293354719225  0.9617690995030926
  0.9229387090764640  0.7405331599910397  0.0764680393628036
  0.9847225534702009  0.8055415918246926  0.2588612802937704
  0.5798726525032142  0.4774989438465604  0.3344833453550834
  0.6114201607386529  0.3291532662831320  0.2266945852973287
  0.5480545318287454  0.3901293354719225  0.0382309004969217
  0.5770612909235360  0.2405331599910396  0.9235319606371963
  0.5152774477674225  0.3055415918246928  0.7411387197062304
  0.1282027457213422  0.0737618833824529  0.4784154944684640
  0.1836235525967965  0.3383935920939727  0.2835840414034425
  0.1502852286774830  0.4260940009700896  0.9825516141033220
  0.0409160457948814  0.3105026764599939  0.6556409402524005
  0.3717972555162811  0.5737618833824530  0.5215845055315288
  0.3163764474032036  0.8383935920939797  0.7164159585965577
  0.3497147713225241  0.9260940009701040  0.0174483858966779
  0.4590839554427419  0.8105026764599942  0.3443590597476142
  0.8717972555162741  0.9262381166175470  0.5215845055315288
  0.8163764474032036  0.6616064079060203  0.7164159585965577
  0.8497147713225101  0.5739059990298960  0.0174483858966779
  0.9590839554427421  0.6894973235400058  0.3443590597476142
  0.6282027457213493  0.4262381166175472  0.4784154944684640
  0.6836235525967964  0.1616064079060273  0.2835840414034425
  0.6502852286774899  0.0739059990299034  0.9825516141033220
  0.5409160457948813  0.1894973235400059  0.6556409402524005

  0.00000000E+00  0.00000000E+00  0.00000000E+00
  0.00000000E+00  0.00000000E+00  0.00000000E+00
  0.00000000E+00  0.00000000E+00  0.00000000E+00
  0.00000000E+00  0.00000000E+00  0.00000000E+00
  0.00000000E+00  0.00000000E+00  0.00000000E+00
  0.00000000E+00  0.00000000E+00  0.00000000E+00
  0.00000000E+00  0.00000000E+00  0.00000000E+00
  0.00000000E+00  0.00000000E+00  0.00000000E+00
  0.00000000E+00  0.00000000E+00  0.00000000E+00
  0.00000000E+00  0.00000000E+00  0.00000000E+00
  0.00000000E+00  0.00000000E+00  0.00000000E+00
  0.00000000E+00  0.00000000E+00  0.00000000E+00
  0.00000000E+00  0.00000000E+00  0.00000000E+00
  0.00000000E+00  0.00000000E+00  0.00000000E+00
  0.00000000E+00  0.00000000E+00  0.00000000E+00
  0.00000000E+00  0.00000000E+00  0.00000000E+00
  0.00000000E+00  0.00000000E+00  0.00000000E+00
  0.00000000E+00  0.00000000E+00  0.00000000E+00
  0.00000000E+00  0.00000000E+00  0.00000000E+00
  0.00000000E+00  0.00000000E+00  0.00000000E+00
  0.00000000E+00  0.00000000E+00  0.00000000E+00
  0.00000000E+00  0.00000000E+00  0.00000000E+00
  0.00000000E+00  0.00000000E+00  0.00000000E+00
  0.00000000E+00  0.00000000E+00  0.00000000E+00
  0.00000000E+00  0.00000000E+00  0.00000000E+00
  0.00000000E+00  0.00000000E+00  0.00000000E+00
  0.00000000E+00  0.00000000E+00  0.00000000E+00
  0.00000000E+00  0.00000000E+00  0.00000000E+00
  0.00000000E+00  0.00000000E+00  0.00000000E+00
  0.00000000E+00  0.00000000E+00  0.00000000E+00
  0.00000000E+00  0.00000000E+00  0.00000000E+00
  0.00000000E+00  0.00000000E+00  0.00000000E+00
  0.00000000E+00  0.00000000E+00  0.00000000E+00
  0.00000000E+00  0.00000000E+00  0.00000000E+00
  0.00000000E+00  0.00000000E+00  0.00000000E+00
  0.00000000E+00  0.00000000E+00  0.00000000E+00
