generated by phonopy
   1.0
    15.6423467355554902    0.0000000000000000   -0.1708366560834934
     0.0000000000000000   17.4619612148752097    0.0000000000000000
    -9.6649496067473173    0.0000000000000000   13.9483333215273060
C H
 240  192
Direct
  0.0399363262516036  0.0075003520511466  0.1672416726775417
  0.5399363262516036  0.0075003520511466  0.1672416726775417
  0.0399363262516036  0.3408336853844799  0.1672416726775417
  0.5399363262516036  0.3408336853844799  0.1672416726775417
  0.0399363262516036  0.6741670187178133  0.1672416726775417
  0.5399363262516036  0.6741670187178133  0.1672416726775417
  0.0399363262516036  0.0075003520511466  0.6672416726775416
  0.5399363262516036  0.0075003520511466  0.6672416726775416
  0.0399363262516036  0.3408336853844799  0.6672416726775416
  0.5399363262516036  0.3408336853844799  0.6672416726775416
  0.0399363262516036  0.6741670187178133  0.6672416726775416
  0.5399363262516036  0.6741670187178133  0.6672416726775416
  0.0557100803693265  0.0569489112389560  0.1133472926486643
  0.5557100803693265  0.0569489112389560  0.1133472926486643
  0.0557100803693265  0.3902822445722894  0.1133472926486643
  0.5557100803693265  0.3902822445722894  0.1133472926486643
  0.0557100803693265  0.7236155779056227  0.1133472926486643
  0.5557100803693265  0.7236155779056227  0.1133472926486643
  0.0557100803693265  0.0569489112389560  0.6133472926486644
  0.5557100803693265  0.0569489112389560  0.6133472926486644
  0.0557100803693265  0.3902822445722894  0.6133472926486644
  0.5557100803693265  0.3902822445722894  0.6133472926486644
  0.0557100803693265  0.7236155779056227  0.6133472926486644
  0.5557100803693265  0.7236155779056227  0.6133472926486644
  0.0240272659143726  0.0366235548426925  0.0191154502484609
  0.5240272659143727  0.0366235548426925  0.0191154502484609
  0.0240272659143726  0.3699568881760258  0.0191154502484609
  0.5240272659143727  0.3699568881760258  0.0191154502484609
  0.0240272659143726  0.7032902215093590  0.0191154502484609
  0.5240272659143727  0.7032902215093590  0.0191154502484609
  0.0240272659143726  0.0366235548426925  0.5191154502484608
  0.5240272659143727  0.0366235548426925  0.5191154502484608
  0.0240272659143726  0.3699568881760258  0.5191154502484608
  0.5240272659143727  0.3699568881760258  0.5191154502484608
  0.0240272659143726  0.7032902215093590  0.5191154502484608
  0.5240272659143727  0.7032902215093590  0.5191154502484608
  0.0385306454617681  0.0864889466696535  0.4617659803185982
  0.5385306454617681  0.0864889466696535  0.4617659803185982
  0.0385306454617681  0.4198222800029868  0.4617659803185982
  0.5385306454617681  0.4198222800029868  0.4617659803185982
  0.0385306454617681  0.7531556133363201  0.4617659803185982
  0.5385306454617681  0.7531556133363201  0.4617659803185982
  0.0385306454617681  0.0864889466696535  0.9617659803185982
  0.5385306454617681  0.0864889466696535  0.9617659803185982
  0.0385306454617681  0.4198222800029868  0.9617659803185982
  0.5385306454617681  0.4198222800029868  0.9617659803185982
  0.0385306454617681  0.7531556133363201  0.9617659803185982
  0.5385306454617681  0.7531556133363201  0.9617659803185982
  0.0076387238837112  0.0648194693917691  0.3705693598531152
  0.5076387238837112  0.0648194693917691  0.3705693598531152
  0.0076387238837112  0.3981528027251025  0.3705693598531152
  0.5076387238837112  0.3981528027251025  0.3705693598531152
  0.0076387238837112  0.7314861360584357  0.3705693598531152
  0.5076387238837112  0.7314861360584357  0.3705693598531152
  0.0076387238837112  0.0648194693917691  0.8705693598531152
  0.5076387238837112  0.0648194693917691  0.8705693598531152
  0.0076387238837112  0.3981528027251025  0.8705693598531152
  0.5076387238837112  0.3981528027251025  0.8705693598531152
  0.0076387238837112  0.7314861360584357  0.8705693598531152
  0.5076387238837112  0.7314861360584357  0.8705693598531152
  0.2100636743672080  0.1741670187178132  0.3327583273224619
  0.7100636743672081  0.1741670187178132  0.3327583273224619
  0.2100636743672080  0.5075003520511465  0.3327583273224619
  0.7100636743672081  0.5075003520511465  0.3327583273224619
  0.2100636743672080  0.8408336853844798  0.3327583273224619
  0.7100636743672081  0.8408336853844798  0.3327583273224619
  0.2100636743672080  0.1741670187178132  0.8327583273224619
  0.7100636743672081  0.1741670187178132  0.8327583273224619
  0.2100636743672080  0.5075003520511465  0.8327583273224619
  0.7100636743672081  0.5075003520511465  0.8327583273224619
  0.2100636743672080  0.8408336853844798  0.8327583273224619
  0.7100636743672081  0.8408336853844798  0.8327583273224619
  0.1942899202494852  0.2236155779056227  0.3866527073513356
  0.6942899202494852  0.2236155779056227  0.3866527073513356
  0.1942899202494852  0.5569489112389561  0.3866527073513356
  0.6942899202494852  0.5569489112389561  0.3866527073513356
  0.1942899202494852  0.8902822445722893  0.3866527073513356
  0.6942899202494852  0.8902822445722893  0.3866527073513356
  0.1942899202494852  0.2236155779056227  0.8866527073513355
  0.6942899202494852  0.2236155779056227  0.8866527073513355
  0.1942899202494852  0.5569489112389561  0.8866527073513355
  0.6942899202494852  0.5569489112389561  0.8866527073513355
  0.1942899202494852  0.8902822445722893  0.8866527073513355
  0.6942899202494852  0.8902822445722893  0.8866527073513355
  0.2259727347044390  0.2032902215093592  0.4808845497515463
  0.7259727347044390  0.2032902215093592  0.4808845497515463
  0.2259727347044390  0.5366235548426924  0.4808845497515463
  0.7259727347044390  0.5366235548426924  0.4808845497515463
  0.2259727347044390  0.8699568881760258  0.4808845497515463
  0.7259727347044390  0.8699568881760258  0.4808845497515463
  0.2259727347044390  0.2032902215093592  0.9808845497515464
  0.7259727347044390  0.2032902215093592  0.9808845497515464
  0.2259727347044390  0.5366235548426924  0.9808845497515464
  0.7259727347044390  0.5366235548426924  0.9808845497515464
  0.2259727347044390  0.8699568881760258  0.9808845497515464
  0.7259727347044390  0.8699568881760258  0.9808845497515464
  0.2114693545382318  0.2531556133363201  0.0382340196814018
  0.7114693545382318  0.2531556133363201  0.0382340196814018
  0.2114693545382318  0.5864889466696535  0.0382340196814018
  0.7114693545382318  0.5864889466696535  0.0382340196814018
  0.2114693545382318  0.9198222800029867  0.0382340196814018
  0.7114693545382318  0.9198222800029867  0.0382340196814018
  0.2114693545382318  0.2531556133363201  0.5382340196814018
  0.7114693545382318  0.2531556133363201  0.5382340196814018
  0.2114693545382318  0.5864889466696535  0.5382340196814018
  0.7114693545382318  0.5864889466696535  0.5382340196814018
  0.2114693545382318  0.9198222800029867  0.5382340196814018
  0.7114693545382318  0.9198222800029867  0.5382340196814018
  0.2423612767351005  0.2314861360584358  0.1294306401468852
  0.7423612767351004  0.2314861360584358  0.1294306401468852
  0.2423612767351005  0.5648194693917691  0.1294306401468852
  0.7423612767351004  0.5648194693917691  0.1294306401468852
  0.2423612767351005  0.8981528027251025  0.1294306401468852
  0.7423612767351004  0.8981528027251025  0.1294306401468852
  0.2423612767351005  0.2314861360584358  0.6294306401468852
  0.7423612767351004  0.2314861360584358  0.6294306401468852
  0.2423612767351005  0.5648194693917691  0.6294306401468852
  0.7423612767351004  0.5648194693917691  0.6294306401468852
  0.2423612767351005  0.8981528027251025  0.6294306401468852
  0.7423612767351004  0.8981528027251025  0.6294306401468852
  0.4600636743672046  0.3258329812821868  0.3327583273224619
  0.9600636743672046  0.3258329812821868  0.3327583273224619
  0.4600636743672046  0.6591663146155201  0.3327583273224619
  0.9600636743672046  0.6591663146155201  0.3327583273224619
  0.4600636743672046  0.9924996479488535  0.3327583273224619
  0.9600636743672046  0.9924996479488535  0.3327583273224619
  0.4600636743672046  0.3258329812821868  0.8327583273224619
  0.9600636743672046  0.3258329812821868  0.8327583273224619
  0.4600636743672046  0.6591663146155201  0.8327583273224619
  0.9600636743672046  0.6591663146155201  0.8327583273224619
  0.4600636743672046  0.9924996479488535  0.8327583273224619
  0.9600636743672046  0.9924996479488535  0.8327583273224619
  0.4442899202494852  0.2763844220943772  0.3866527073513356
  0.9442899202494852  0.2763844220943772  0.3866527073513356
  0.4442899202494852  0.6097177554277106  0.3866527073513356
  0.9442899202494852  0.6097177554277106  0.3866527073513356
  0.4442899202494852  0.9430510887610439  0.3866527073513356
  0.9442899202494852  0.9430510887610439  0.3866527073513356
  0.4442899202494852  0.2763844220943772  0.8866527073513355
  0.9442899202494852  0.2763844220943772  0.8866527073513355
  0.4442899202494852  0.6097177554277106  0.8866527073513355
  0.9442899202494852  0.6097177554277106  0.8866527073513355
  0.4442899202494852  0.9430510887610439  0.8866527073513355
  0.9442899202494852  0.9430510887610439  0.8866527073513355
  0.4759727347044390  0.2967097784906408  0.4808845497515463
  0.9759727347044389  0.2967097784906408  0.4808845497515463
  0.4759727347044390  0.6300431118239742  0.4808845497515463
  0.9759727347044389  0.6300431118239742  0.4808845497515463
  0.4759727347044390  0.9633764451573075  0.4808845497515463
  0.9759727347044389  0.9633764451573075  0.4808845497515463
  0.4759727347044390  0.2967097784906408  0.9808845497515464
  0.9759727347044389  0.2967097784906408  0.9808845497515464
  0.4759727347044390  0.6300431118239742  0.9808845497515464
  0.9759727347044389  0.6300431118239742  0.9808845497515464
  0.4759727347044390  0.9633764451573075  0.9808845497515464
  0.9759727347044389  0.9633764451573075  0.9808845497515464
  0.4614693545382320  0.2468443866636799  0.0382340196814018
  0.9614693545382320  0.2468443866636799  0.0382340196814018
  0.4614693545382320  0.5801777199970132  0.0382340196814018
  0.9614693545382320  0.5801777199970132  0.0382340196814018
  0.4614693545382320  0.9135110533303465  0.0382340196814018
  0.9614693545382320  0.9135110533303465  0.0382340196814018
  0.4614693545382320  0.2468443866636799  0.5382340196814018
  0.9614693545382320  0.2468443866636799  0.5382340196814018
  0.4614693545382320  0.5801777199970132  0.5382340196814018
  0.9614693545382320  0.5801777199970132  0.5382340196814018
  0.4614693545382320  0.9135110533303465  0.5382340196814018
  0.9614693545382320  0.9135110533303465  0.5382340196814018
  0.4923612767351004  0.2685138639415642  0.1294306401468852
  0.9923612767351004  0.2685138639415642  0.1294306401468852
  0.4923612767351004  0.6018471972748975  0.1294306401468852
  0.9923612767351004  0.6018471972748975  0.1294306401468852
  0.4923612767351004  0.9351805306082308  0.1294306401468852
  0.9923612767351004  0.9351805306082308  0.1294306401468852
  0.4923612767351004  0.2685138639415642  0.6294306401468852
  0.9923612767351004  0.2685138639415642  0.6294306401468852
  0.4923612767351004  0.6018471972748975  0.6294306401468852
  0.9923612767351004  0.6018471972748975  0.6294306401468852
  0.4923612767351004  0.9351805306082308  0.6294306401468852
  0.9923612767351004  0.9351805306082308  0.6294306401468852
  0.2899363262516071  0.1591663146155201  0.1672416726775417
  0.7899363262516070  0.1591663146155201  0.1672416726775417
  0.2899363262516071  0.4924996479488535  0.1672416726775417
  0.7899363262516070  0.4924996479488535  0.1672416726775417
  0.2899363262516071  0.8258329812821867  0.1672416726775417
  0.7899363262516070  0.8258329812821867  0.1672416726775417
  0.2899363262516071  0.1591663146155201  0.6672416726775416
  0.7899363262516070  0.1591663146155201  0.6672416726775416
  0.2899363262516071  0.4924996479488535  0.6672416726775416
  0.7899363262516070  0.4924996479488535  0.6672416726775416
  0.2899363262516071  0.8258329812821867  0.6672416726775416
  0.7899363262516070  0.8258329812821867  0.6672416726775416
  0.3057100803693265  0.1097177554277107  0.1133472926486643
  0.8057100803693265  0.1097177554277107  0.1133472926486643
  0.3057100803693265  0.4430510887610440  0.1133472926486643
  0.8057100803693265  0.4430510887610440  0.1133472926486643
  0.3057100803693265  0.7763844220943774  0.1133472926486643
  0.8057100803693265  0.7763844220943774  0.1133472926486643
  0.3057100803693265  0.1097177554277107  0.6133472926486644
  0.8057100803693265  0.1097177554277107  0.6133472926486644
  0.3057100803693265  0.4430510887610440  0.6133472926486644
  0.8057100803693265  0.4430510887610440  0.6133472926486644
  0.3057100803693265  0.7763844220943774  0.6133472926486644
  0.8057100803693265  0.7763844220943774  0.6133472926486644
  0.2740272659143727  0.1300431118239742  0.0191154502484609
  0.7740272659143728  0.1300431118239742  0.0191154502484609
  0.2740272659143727  0.4633764451573075  0.0191154502484609
  0.7740272659143728  0.4633764451573075  0.0191154502484609
  0.2740272659143727  0.7967097784906408  0.0191154502484609
  0.7740272659143728  0.7967097784906408  0.0191154502484609
  0.2740272659143727  0.1300431118239742  0.5191154502484608
  0.7740272659143728  0.1300431118239742  0.5191154502484608
  0.2740272659143727  0.4633764451573075  0.5191154502484608
  0.7740272659143728  0.4633764451573075  0.5191154502484608
  0.2740272659143727  0.7967097784906408  0.5191154502484608
  0.7740272659143728  0.7967097784906408  0.5191154502484608
  0.2885306454617680  0.0801777199970132  0.4617659803185982
  0.7885306454617680  0.0801777199970132  0.4617659803185982
  0.2885306454617680  0.4135110533303465  0.4617659803185982
  0.7885306454617680  0.4135110533303465  0.4617659803185982
  0.2885306454617680  0.7468443866636798  0.4617659803185982
  0.7885306454617680  0.7468443866636798  0.4617659803185982
  0.2885306454617680  0.0801777199970132  0.9617659803185982
  0.7885306454617680  0.0801777199970132  0.9617659803185982
  0.2885306454617680  0.4135110533303465  0.9617659803185982
  0.7885306454617680  0.4135110533303465  0.9617659803185982
  0.2885306454617680  0.7468443866636798  0.9617659803185982
  0.7885306454617680  0.7468443866636798  0.9617659803185982
  0.2576387238837112  0.1018471972748976  0.3705693598531152
  0.7576387238837112  0.1018471972748976  0.3705693598531152
  0.2576387238837112  0.4351805306082309  0.3705693598531152
  0.7576387238837112  0.4351805306082309  0.3705693598531152
  0.2576387238837112  0.7685138639415642  0.3705693598531152
  0.7576387238837112  0.7685138639415642  0.3705693598531152
  0.2576387238837112  0.1018471972748976  0.8705693598531152
  0.7576387238837112  0.1018471972748976  0.8705693598531152
  0.2576387238837112  0.4351805306082309  0.8705693598531152
  0.7576387238837112  0.4351805306082309  0.8705693598531152
  0.2576387238837112  0.7685138639415642  0.8705693598531152
  0.7576387238837112  0.7685138639415642  0.8705693598531152
  0.0641013728606711  0.0245872944608176  0.2392077472342320
  0.5641013728606711  0.0245872944608176  0.2392077472342320
  0.0641013728606711  0.3579206277941510  0.2392077472342320
  0.5641013728606711  0.3579206277941510  0.2392077472342320
  0.0641013728606711  0.6912539611274842  0.2392077472342320
  0.5641013728606711  0.6912539611274842  0.2392077472342320
  0.0641013728606711  0.0245872944608176  0.7392077472342320
  0.5641013728606711  0.0245872944608176  0.7392077472342320
  0.0641013728606711  0.3579206277941510  0.7392077472342320
  0.5641013728606711  0.3579206277941510  0.7392077472342320
  0.0641013728606711  0.6912539611274842  0.7392077472342320
  0.5641013728606711  0.6912539611274842  0.7392077472342320
  0.0918117762983982  0.1127978640313242  0.1417920207017213
  0.5918117762983982  0.1127978640313242  0.1417920207017213
  0.0918117762983982  0.4461311973646576  0.1417920207017213
  0.5918117762983982  0.4461311973646576  0.1417920207017213
  0.0918117762983982  0.7794645306979909  0.1417920207017213
  0.5918117762983982  0.7794645306979909  0.1417920207017213
  0.0918117762983982  0.1127978640313242  0.6417920207017213
  0.5918117762983982  0.1127978640313242  0.6417920207017213
  0.0918117762983982  0.4461311973646576  0.6417920207017213
  0.5918117762983982  0.4461311973646576  0.6417920207017213
  0.0918117762983982  0.7794645306979909  0.6417920207017213
  0.5918117762983982  0.7794645306979909  0.6417920207017213
  0.0751426143387415  0.1420313336566965  0.4912758070516610
  0.5751426143387415  0.1420313336566965  0.4912758070516610
  0.0751426143387415  0.4753646669900298  0.4912758070516610
  0.5751426143387415  0.4753646669900298  0.4912758070516610
  0.0751426143387415  0.8086980003233633  0.4912758070516610
  0.5751426143387415  0.8086980003233633  0.4912758070516610
  0.0751426143387415  0.1420313336566965  0.9912758070516610
  0.5751426143387415  0.1420313336566965  0.9912758070516610
  0.0751426143387415  0.4753646669900298  0.9912758070516610
  0.5751426143387415  0.4753646669900298  0.9912758070516610
  0.0751426143387415  0.8086980003233633  0.9912758070516610
  0.5751426143387415  0.8086980003233633  0.9912758070516610
  0.0204580228974407  0.1035008921533313  0.3278204701262002
  0.5204580228974407  0.1035008921533313  0.3278204701262002
  0.0204580228974407  0.4368342254866646  0.3278204701262002
  0.5204580228974407  0.4368342254866646  0.3278204701262002
  0.0204580228974407  0.7701675588199979  0.3278204701262002
  0.5204580228974407  0.7701675588199979  0.3278204701262002
  0.0204580228974407  0.1035008921533313  0.8278204701262002
  0.5204580228974407  0.1035008921533313  0.8278204701262002
  0.0204580228974407  0.4368342254866646  0.8278204701262002
  0.5204580228974407  0.4368342254866646  0.8278204701262002
  0.0204580228974407  0.7701675588199979  0.8278204701262002
  0.5204580228974407  0.7701675588199979  0.8278204701262002
  0.1858986277581406  0.1912539611274843  0.2607922527657644
  0.6858986277581406  0.1912539611274843  0.2607922527657644
  0.1858986277581406  0.5245872944608176  0.2607922527657644
  0.6858986277581406  0.5245872944608176  0.2607922527657644
  0.1858986277581406  0.8579206277941510  0.2607922527657644
  0.6858986277581406  0.8579206277941510  0.2607922527657644
  0.1858986277581406  0.1912539611274843  0.7607922527657645
  0.6858986277581406  0.1912539611274843  0.7607922527657645
  0.1858986277581406  0.5245872944608176  0.7607922527657645
  0.6858986277581406  0.5245872944608176  0.7607922527657645
  0.1858986277581406  0.8579206277941510  0.7607922527657645
  0.6858986277581406  0.8579206277941510  0.7607922527657645
  0.1581882237016018  0.2794645306979932  0.3582079792982789
  0.6581882237016018  0.2794645306979932  0.3582079792982789
  0.1581882237016018  0.6127978640313265  0.3582079792982789
  0.6581882237016018  0.6127978640313265  0.3582079792982789
  0.1581882237016018  0.9461311973646598  0.3582079792982789
  0.6581882237016018  0.9461311973646598  0.3582079792982789
  0.1581882237016018  0.2794645306979932  0.8582079792982789
  0.6581882237016018  0.2794645306979932  0.8582079792982789
  0.1581882237016018  0.6127978640313265  0.8582079792982789
  0.6581882237016018  0.6127978640313265  0.8582079792982789
  0.1581882237016018  0.9461311973646598  0.8582079792982789
  0.6581882237016018  0.9461311973646598  0.8582079792982789
  0.1748573856612620  0.3086980003233680  0.0087241929483389
  0.6748573856612621  0.3086980003233680  0.0087241929483389
  0.1748573856612620  0.6420313336567013  0.0087241929483389
  0.6748573856612621  0.6420313336567013  0.0087241929483389
  0.1748573856612620  0.9753646669900347  0.0087241929483389
  0.6748573856612621  0.9753646669900347  0.0087241929483389
  0.1748573856612620  0.3086980003233680  0.5087241929483389
  0.6748573856612621  0.3086980003233680  0.5087241929483389
  0.1748573856612620  0.6420313336567013  0.5087241929483389
  0.6748573856612621  0.6420313336567013  0.5087241929483389
  0.1748573856612620  0.9753646669900347  0.5087241929483389
  0.6748573856612621  0.9753646669900347  0.5087241929483389
  0.2295419777213709  0.2701675588199980  0.1721795298738071
  0.7295419777213710  0.2701675588199980  0.1721795298738071
  0.2295419777213709  0.6035008921533314  0.1721795298738071
  0.7295419777213710  0.6035008921533314  0.1721795298738071
  0.2295419777213709  0.9368342254866647  0.1721795298738071
  0.7295419777213710  0.9368342254866647  0.1721795298738071
  0.2295419777213709  0.2701675588199980  0.6721795298738071
  0.7295419777213710  0.2701675588199980  0.6721795298738071
  0.2295419777213709  0.6035008921533314  0.6721795298738071
  0.7295419777213710  0.6035008921533314  0.6721795298738071
  0.2295419777213709  0.9368342254866647  0.6721795298738071
  0.7295419777213710  0.9368342254866647  0.6721795298738071
  0.4358986277581370  0.3087460388725156  0.2607922527657644
  0.9358986277581370  0.3087460388725156  0.2607922527657644
  0.4358986277581370  0.6420793722058489  0.2607922527657644
  0.9358986277581370  0.6420793722058489  0.2607922527657644
  0.4358986277581370  0.9754127055391822  0.2607922527657644
  0.9358986277581370  0.9754127055391822  0.2607922527657644
  0.4358986277581370  0.3087460388725156  0.7607922527657645
  0.9358986277581370  0.3087460388725156  0.7607922527657645
  0.4358986277581370  0.6420793722058489  0.7607922527657645
  0.9358986277581370  0.6420793722058489  0.7607922527657645
  0.4358986277581370  0.9754127055391822  0.7607922527657645
  0.9358986277581370  0.9754127055391822  0.7607922527657645
  0.4081882237016018  0.2205354693020068  0.3582079792982789
  0.9081882237016018  0.2205354693020068  0.3582079792982789
  0.4081882237016018  0.5538688026353401  0.3582079792982789
  0.9081882237016018  0.5538688026353401  0.3582079792982789
  0.4081882237016018  0.8872021359686735  0.3582079792982789
  0.9081882237016018  0.8872021359686735  0.3582079792982789
  0.4081882237016018  0.2205354693020068  0.8582079792982789
  0.9081882237016018  0.2205354693020068  0.8582079792982789
  0.4081882237016018  0.5538688026353401  0.8582079792982789
  0.9081882237016018  0.5538688026353401  0.8582079792982789
  0.4081882237016018  0.8872021359686735  0.8582079792982789
  0.9081882237016018  0.8872021359686735  0.8582079792982789
  0.4248573856612550  0.1913019996766320  0.0087241929483389
  0.9248573856612550  0.1913019996766320  0.0087241929483389
  0.4248573856612550  0.5246353330099653  0.0087241929483389
  0.9248573856612550  0.5246353330099653  0.0087241929483389
  0.4248573856612550  0.8579686663432986  0.0087241929483389
  0.9248573856612550  0.8579686663432986  0.0087241929483389
  0.4248573856612550  0.1913019996766320  0.5087241929483389
  0.9248573856612550  0.1913019996766320  0.5087241929483389
  0.4248573856612550  0.5246353330099653  0.5087241929483389
  0.9248573856612550  0.5246353330099653  0.5087241929483389
  0.4248573856612550  0.8579686663432986  0.5087241929483389
  0.9248573856612550  0.8579686663432986  0.5087241929483389
  0.4795419777213710  0.2298324411800019  0.1721795298738071
  0.9795419777213710  0.2298324411800019  0.1721795298738071
  0.4795419777213710  0.5631657745133352  0.1721795298738071
  0.9795419777213710  0.5631657745133352  0.1721795298738071
  0.4795419777213710  0.8964991078466685  0.1721795298738071
  0.9795419777213710  0.8964991078466685  0.1721795298738071
  0.4795419777213710  0.2298324411800019  0.6721795298738071
  0.9795419777213710  0.2298324411800019  0.6721795298738071
  0.4795419777213710  0.5631657745133352  0.6721795298738071
  0.9795419777213710  0.5631657745133352  0.6721795298738071
  0.4795419777213710  0.8964991078466685  0.6721795298738071
  0.9795419777213710  0.8964991078466685  0.6721795298738071
  0.3141013728606746  0.1420793722058490  0.2392077472342320
  0.8141013728606746  0.1420793722058490  0.2392077472342320
  0.3141013728606746  0.4754127055391824  0.2392077472342320
  0.8141013728606746  0.4754127055391824  0.2392077472342320
  0.3141013728606746  0.8087460388725157  0.2392077472342320
  0.8141013728606746  0.8087460388725157  0.2392077472342320
  0.3141013728606746  0.1420793722058490  0.7392077472342320
  0.8141013728606746  0.1420793722058490  0.7392077472342320
  0.3141013728606746  0.4754127055391824  0.7392077472342320
  0.8141013728606746  0.4754127055391824  0.7392077472342320
  0.3141013728606746  0.8087460388725157  0.7392077472342320
  0.8141013728606746  0.8087460388725157  0.7392077472342320
  0.3418117762983982  0.0538688026353424  0.1417920207017213
  0.8418117762983982  0.0538688026353424  0.1417920207017213
  0.3418117762983982  0.3872021359686758  0.1417920207017213
  0.8418117762983982  0.3872021359686758  0.1417920207017213
  0.3418117762983982  0.7205354693020090  0.1417920207017213
  0.8418117762983982  0.7205354693020090  0.1417920207017213
  0.3418117762983982  0.0538688026353424  0.6417920207017213
  0.8418117762983982  0.0538688026353424  0.6417920207017213
  0.3418117762983982  0.3872021359686758  0.6417920207017213
  0.8418117762983982  0.3872021359686758  0.6417920207017213
  0.3418117762983982  0.7205354693020090  0.6417920207017213
  0.8418117762983982  0.7205354693020090  0.6417920207017213
  0.3251426143387450  0.0246353330099678  0.4912758070516610
  0.8251426143387450  0.0246353330099678  0.4912758070516610
  0.3251426143387450  0.3579686663433011  0.4912758070516610
  0.8251426143387450  0.3579686663433011  0.4912758070516610
  0.3251426143387450  0.6913019996766345  0.4912758070516610
  0.8251426143387450  0.6913019996766345  0.4912758070516610
  0.3251426143387450  0.0246353330099678  0.9912758070516610
  0.8251426143387450  0.0246353330099678  0.9912758070516610
  0.3251426143387450  0.3579686663433011  0.9912758070516610
  0.8251426143387450  0.3579686663433011  0.9912758070516610
  0.3251426143387450  0.6913019996766345  0.9912758070516610
  0.8251426143387450  0.6913019996766345  0.9912758070516610
  0.2704580228974406  0.0631657745133353  0.3278204701262002
  0.7704580228974407  0.0631657745133353  0.3278204701262002
  0.2704580228974406  0.3964991078466686  0.3278204701262002
  0.7704580228974407  0.3964991078466686  0.3278204701262002
  0.2704580228974406  0.7298324411800019  0.3278204701262002
  0.7704580228974407  0.7298324411800019  0.3278204701262002
  0.2704580228974406  0.0631657745133353  0.8278204701262002
  0.7704580228974407  0.0631657745133353  0.8278204701262002
  0.2704580228974406  0.3964991078466686  0.8278204701262002
  0.7704580228974407  0.3964991078466686  0.8278204701262002
  0.2704580228974406  0.7298324411800019  0.8278204701262002
  0.7704580228974407  0.7298324411800019  0.8278204701262002
