 # Converted from .gen
    1.00000000000000
    8.078326581  0.0  0.0358276806
    0.0  5.903187492  0.0
    -4.882780927  0.0  7.106158891
     C  H
     20  16
Direct
   0.08615007325   0.0362124736   0.3321340842
   0.1136698466   0.1765348678   0.2202386413
   0.04720307735   0.1086998614   0.03398644831
   0.07240108582   0.2506660701   0.9136838446
   0.007924358133   0.1794170128   0.735498787
   0.4138499288   0.5362124745   0.6678659165
   0.3863301608   0.6765348712   0.7797613612
   0.4527969287   0.6086998644   0.9660135537
   0.4275989147   0.7506660696   0.08631615524
   0.492075638   0.6794170107   0.2645012108
   0.913849929   0.9637875247   0.6678659172
   0.88633016   0.8234651304   0.7797613622
   0.9527969261   0.8913001402   0.9660135535
   0.9275989131   0.7493339328   0.08631615438
   0.9920756373   0.8205829896   0.2645012105
   0.586150073   0.4637875256   0.3321340836
   0.6136698474   0.3234651337   0.2202386402
   0.54720308   0.3913001433   0.03398644854
   0.5724010873   0.2493339322   0.9136838453
   0.5079243589   0.3205829875   0.7354987874
   0.1365642967   0.08928176181   0.4730852317
   0.1859636531   0.3405449875   0.2721236941
   0.1438031906   0.4150137526   0.9649707952
   0.02905210943   0.2872542053   0.645695889
   0.3634357032   0.5892817618   0.5269147683
   0.3140363587   0.8405449925   0.7278763101
   0.3561968055   0.9150137494   0.03502920312
   0.470947878   0.7872541985   0.3543041056
   0.8634357061   0.9107182323   0.5269147705
   0.8140363605   0.6594550069   0.7278763138
   0.8561968062   0.5849862519   0.03502920158
   0.9709478772   0.7127457984   0.3543041035
   0.6365642939   0.4107182323   0.4730852294
   0.6859636513   0.1594550119   0.2721236904
   0.6438031899   0.08498624865   0.9649707968
   0.5290521102   0.2127457916   0.6456958911
