generated by phonopy
   1.0
    16.1566531620000013    0.0000000000000000    0.0716553612000000
     0.0000000000000000   17.7095624759999986    0.0000000000000000
    -9.7655618539999995    0.0000000000000000   14.2123177819999995
C H
 240  192
Direct
  0.0430750366250000  0.0120708245333333  0.1660670421000000
  0.5430750366250000  0.0120708245333333  0.1660670421000000
  0.0430750366250000  0.3454041578666667  0.1660670421000000
  0.5430750366250000  0.3454041578666667  0.1660670421000000
  0.0430750366250000  0.6787374911999999  0.1660670421000000
  0.5430750366250000  0.6787374911999999  0.1660670421000000
  0.0430750366250000  0.0120708245333333  0.6660670421000000
  0.5430750366250000  0.0120708245333333  0.6660670421000000
  0.0430750366250000  0.3454041578666667  0.6660670421000000
  0.5430750366250000  0.3454041578666667  0.6660670421000000
  0.0430750366250000  0.6787374911999999  0.6660670421000000
  0.5430750366250000  0.6787374911999999  0.6660670421000000
  0.0568349233000000  0.0588449559333333  0.1101193206500000
  0.5568349233000000  0.0588449559333333  0.1101193206500000
  0.0568349233000000  0.3921782892666666  0.1101193206500000
  0.5568349233000000  0.3921782892666666  0.1101193206500000
  0.0568349233000000  0.7255116226000000  0.1101193206500000
  0.5568349233000000  0.7255116226000000  0.1101193206500000
  0.0568349233000000  0.0588449559333333  0.6101193206500000
  0.5568349233000000  0.0588449559333333  0.6101193206500000
  0.0568349233000000  0.3921782892666666  0.6101193206500000
  0.5568349233000000  0.3921782892666666  0.6101193206500000
  0.0568349233000000  0.7255116226000000  0.6101193206500000
  0.5568349233000000  0.7255116226000000  0.6101193206500000
  0.0236015386750000  0.0362332871333333  0.0169932241550000
  0.5236015386750000  0.0362332871333333  0.0169932241550000
  0.0236015386750000  0.3695666204666667  0.0169932241550000
  0.5236015386750000  0.3695666204666667  0.0169932241550000
  0.0236015386750000  0.7028999537999999  0.0169932241550000
  0.5236015386750000  0.7028999537999999  0.0169932241550000
  0.0236015386750000  0.0362332871333333  0.5169932241550000
  0.5236015386750000  0.0362332871333333  0.5169932241550000
  0.0236015386750000  0.3695666204666667  0.5169932241550000
  0.5236015386750000  0.3695666204666667  0.5169932241550000
  0.0236015386750000  0.7028999537999999  0.5169932241550000
  0.5236015386750000  0.7028999537999999  0.5169932241550000
  0.0362005429100000  0.0835553567000000  0.4568419223000000
  0.5362005429100000  0.0835553567000000  0.4568419223000000
  0.0362005429100000  0.4168886900333333  0.4568419223000000
  0.5362005429100000  0.4168886900333333  0.4568419223000000
  0.0362005429100000  0.7502220233666665  0.4568419223000000
  0.5362005429100000  0.7502220233666665  0.4568419223000000
  0.0362005429100000  0.0835553567000000  0.9568419223000000
  0.5362005429100000  0.0835553567000000  0.9568419223000000
  0.0362005429100000  0.4168886900333333  0.9568419223000000
  0.5362005429100000  0.4168886900333333  0.9568419223000000
  0.0362005429100000  0.7502220233666665  0.9568419223000000
  0.5362005429100000  0.7502220233666665  0.9568419223000000
  0.0039621790665000  0.0598056709333333  0.3677493935000000
  0.5039621790665000  0.0598056709333333  0.3677493935000000
  0.0039621790665000  0.3931390042666667  0.3677493935000000
  0.5039621790665000  0.3931390042666667  0.3677493935000000
  0.0039621790665000  0.7264723376000000  0.3677493935000000
  0.5039621790665000  0.7264723376000000  0.3677493935000000
  0.0039621790665000  0.0598056709333333  0.8677493935000000
  0.5039621790665000  0.0598056709333333  0.8677493935000000
  0.0039621790665000  0.3931390042666667  0.8677493935000000
  0.5039621790665000  0.3931390042666667  0.8677493935000000
  0.0039621790665000  0.7264723376000000  0.8677493935000000
  0.5039621790665000  0.7264723376000000  0.8677493935000000
  0.2069249644000000  0.1787374915000000  0.3339329582500000
  0.7069249644000000  0.1787374915000000  0.3339329582500000
  0.2069249644000000  0.5120708248333333  0.3339329582500000
  0.7069249644000000  0.5120708248333333  0.3339329582500000
  0.2069249644000000  0.8454041581666667  0.3339329582500000
  0.7069249644000000  0.8454041581666667  0.3339329582500000
  0.2069249644000000  0.1787374915000000  0.8339329582500000
  0.7069249644000000  0.1787374915000000  0.8339329582500000
  0.2069249644000000  0.5120708248333333  0.8339329582500000
  0.7069249644000000  0.5120708248333333  0.8339329582500000
  0.2069249644000000  0.8454041581666667  0.8339329582500000
  0.7069249644000000  0.8454041581666667  0.8339329582500000
  0.1931650804000000  0.2255116237333333  0.3898806806000000
  0.6931650804000000  0.2255116237333333  0.3898806806000000
  0.1931650804000000  0.5588449570666666  0.3898806806000000
  0.6931650804000000  0.5588449570666666  0.3898806806000000
  0.1931650804000000  0.8921782904000000  0.3898806806000000
  0.6931650804000000  0.8921782904000000  0.3898806806000000
  0.1931650804000000  0.2255116237333333  0.8898806805999999
  0.6931650804000000  0.2255116237333333  0.8898806805999999
  0.1931650804000000  0.5588449570666666  0.8898806805999999
  0.6931650804000000  0.5588449570666666  0.8898806805999999
  0.1931650804000000  0.8921782904000000  0.8898806805999999
  0.6931650804000000  0.8921782904000000  0.8898806805999999
  0.2263984643500000  0.2028999548000000  0.4830067768500000
  0.7263984643500000  0.2028999548000000  0.4830067768500000
  0.2263984643500000  0.5362332881333334  0.4830067768500000
  0.7263984643500000  0.5362332881333334  0.4830067768500000
  0.2263984643500000  0.8695666214666666  0.4830067768500000
  0.7263984643500000  0.8695666214666666  0.4830067768500000
  0.2263984643500000  0.2028999548000000  0.9830067768499999
  0.7263984643500000  0.2028999548000000  0.9830067768499999
  0.2263984643500000  0.5362332881333334  0.9830067768499999
  0.7263984643500000  0.5362332881333334  0.9830067768499999
  0.2263984643500000  0.8695666214666666  0.9830067768499999
  0.7263984643500000  0.8695666214666666  0.9830067768499999
  0.2137994573500000  0.2502220232000000  0.0431580776200000
  0.7137994573499999  0.2502220232000000  0.0431580776200000
  0.2137994573500000  0.5835553565333333  0.0431580776200000
  0.7137994573499999  0.5835553565333333  0.0431580776200000
  0.2137994573500000  0.9168886898666667  0.0431580776200000
  0.7137994573499999  0.9168886898666667  0.0431580776200000
  0.2137994573500000  0.2502220232000000  0.5431580776200000
  0.7137994573499999  0.2502220232000000  0.5431580776200000
  0.2137994573500000  0.5835553565333333  0.5431580776200000
  0.7137994573499999  0.5835553565333333  0.5431580776200000
  0.2137994573500000  0.9168886898666667  0.5431580776200000
  0.7137994573499999  0.9168886898666667  0.5431580776200000
  0.2460378190000000  0.2264723369000000  0.1322506054000000
  0.7460378190000000  0.2264723369000000  0.1322506054000000
  0.2460378190000000  0.5598056702333333  0.1322506054000000
  0.7460378190000000  0.5598056702333333  0.1322506054000000
  0.2460378190000000  0.8931390035666666  0.1322506054000000
  0.7460378190000000  0.8931390035666666  0.1322506054000000
  0.2460378190000000  0.2264723369000000  0.6322506054000000
  0.7460378190000000  0.2264723369000000  0.6322506054000000
  0.2460378190000000  0.5598056702333333  0.6322506054000000
  0.7460378190000000  0.5598056702333333  0.6322506054000000
  0.2460378190000000  0.8931390035666666  0.6322506054000000
  0.7460378190000000  0.8931390035666666  0.6322506054000000
  0.4569249645000000  0.3212625082333333  0.3339329586000000
  0.9569249645000000  0.3212625082333333  0.3339329586000000
  0.4569249645000000  0.6545958415666666  0.3339329586000000
  0.9569249645000000  0.6545958415666666  0.3339329586000000
  0.4569249645000000  0.9879291748999999  0.3339329586000000
  0.9569249645000000  0.9879291748999999  0.3339329586000000
  0.4569249645000000  0.3212625082333333  0.8339329585999999
  0.9569249645000000  0.3212625082333333  0.8339329585999999
  0.4569249645000000  0.6545958415666666  0.8339329585999999
  0.9569249645000000  0.6545958415666666  0.8339329585999999
  0.4569249645000000  0.9879291748999999  0.8339329585999999
  0.9569249645000000  0.9879291748999999  0.8339329585999999
  0.4431650800000000  0.2744883768000000  0.3898806811000000
  0.9431650800000000  0.2744883768000000  0.3898806811000000
  0.4431650800000000  0.6078217101333333  0.3898806811000000
  0.9431650800000000  0.6078217101333333  0.3898806811000000
  0.4431650800000000  0.9411550434666666  0.3898806811000000
  0.9431650800000000  0.9411550434666666  0.3898806811000000
  0.4431650800000000  0.2744883768000000  0.8898806811000000
  0.9431650800000000  0.2744883768000000  0.8898806811000000
  0.4431650800000000  0.6078217101333333  0.8898806811000000
  0.9431650800000000  0.6078217101333333  0.8898806811000000
  0.4431650800000000  0.9411550434666666  0.8898806811000000
  0.9431650800000000  0.9411550434666666  0.8898806811000000
  0.4763984630500000  0.2971000467333333  0.4830067767500000
  0.9763984630500000  0.2971000467333333  0.4830067767500000
  0.4763984630500000  0.6304333800666666  0.4830067767500000
  0.9763984630500000  0.6304333800666666  0.4830067767500000
  0.4763984630500000  0.9637667134000001  0.4830067767500000
  0.9763984630500000  0.9637667134000001  0.4830067767500000
  0.4763984630500000  0.2971000467333333  0.9830067767499999
  0.9763984630500000  0.2971000467333333  0.9830067767499999
  0.4763984630500000  0.6304333800666666  0.9830067767499999
  0.9763984630500000  0.6304333800666666  0.9830067767499999
  0.4763984630500000  0.9637667134000001  0.9830067767499999
  0.9763984630500000  0.9637667134000001  0.9830067767499999
  0.4637994565500000  0.2497779776000000  0.0431580771900000
  0.9637994565500000  0.2497779776000000  0.0431580771900000
  0.4637994565500000  0.5831113109333332  0.0431580771900000
  0.9637994565500000  0.5831113109333332  0.0431580771900000
  0.4637994565500000  0.9164446442666666  0.0431580771900000
  0.9637994565500000  0.9164446442666666  0.0431580771900000
  0.4637994565500000  0.2497779776000000  0.5431580771900000
  0.9637994565500000  0.2497779776000000  0.5431580771900000
  0.4637994565500000  0.5831113109333332  0.5431580771900000
  0.9637994565500000  0.5831113109333332  0.5431580771900000
  0.4637994565500000  0.9164446442666666  0.5431580771900000
  0.9637994565500000  0.9164446442666666  0.5431580771900000
  0.4960378186500000  0.2735276632000000  0.1322506052500000
  0.9960378186500001  0.2735276632000000  0.1322506052500000
  0.4960378186500000  0.6068609965333334  0.1322506052500000
  0.9960378186500001  0.6068609965333334  0.1322506052500000
  0.4960378186500000  0.9401943298666666  0.1322506052500000
  0.9960378186500001  0.9401943298666666  0.1322506052500000
  0.4960378186500000  0.2735276632000000  0.6322506052500000
  0.9960378186500001  0.2735276632000000  0.6322506052500000
  0.4960378186500000  0.6068609965333334  0.6322506052500000
  0.9960378186500001  0.6068609965333334  0.6322506052500000
  0.4960378186500000  0.9401943298666666  0.6322506052500000
  0.9960378186500001  0.9401943298666666  0.6322506052500000
  0.2930750365000000  0.1545958418666666  0.1660670418000000
  0.7930750365000000  0.1545958418666666  0.1660670418000000
  0.2930750365000000  0.4879291752000000  0.1660670418000000
  0.7930750365000000  0.4879291752000000  0.1660670418000000
  0.2930750365000000  0.8212625085333333  0.1660670418000000
  0.7930750365000000  0.8212625085333333  0.1660670418000000
  0.2930750365000000  0.1545958418666666  0.6660670418000000
  0.7930750365000000  0.1545958418666666  0.6660670418000000
  0.2930750365000000  0.4879291752000000  0.6660670418000000
  0.7930750365000000  0.4879291752000000  0.6660670418000000
  0.2930750365000000  0.8212625085333333  0.6660670418000000
  0.7930750365000000  0.8212625085333333  0.6660670418000000
  0.3068349237000000  0.1078217112333333  0.1101193201000000
  0.8068349237000000  0.1078217112333333  0.1101193201000000
  0.3068349237000000  0.4411550445666667  0.1101193201000000
  0.8068349237000000  0.4411550445666667  0.1101193201000000
  0.3068349237000000  0.7744883779000000  0.1101193201000000
  0.8068349237000000  0.7744883779000000  0.1101193201000000
  0.3068349237000000  0.1078217112333333  0.6101193201000000
  0.8068349237000000  0.1078217112333333  0.6101193201000000
  0.3068349237000000  0.4411550445666667  0.6101193201000000
  0.8068349237000000  0.4411550445666667  0.6101193201000000
  0.3068349237000000  0.7744883779000000  0.6101193201000000
  0.8068349237000000  0.7744883779000000  0.6101193201000000
  0.2736015400000000  0.1304333811000000  0.0169932242700000
  0.7736015400000000  0.1304333811000000  0.0169932242700000
  0.2736015400000000  0.4637667144333333  0.0169932242700000
  0.7736015400000000  0.4637667144333333  0.0169932242700000
  0.2736015400000000  0.7971000477666667  0.0169932242700000
  0.7736015400000000  0.7971000477666667  0.0169932242700000
  0.2736015400000000  0.1304333811000000  0.5169932242700001
  0.7736015400000000  0.1304333811000000  0.5169932242700001
  0.2736015400000000  0.4637667144333333  0.5169932242700001
  0.7736015400000000  0.4637667144333333  0.5169932242700001
  0.2736015400000000  0.7971000477666667  0.5169932242700001
  0.7736015400000000  0.7971000477666667  0.5169932242700001
  0.2862005436500000  0.0831113107333333  0.4568419226500000
  0.7862005436500000  0.0831113107333333  0.4568419226500000
  0.2862005436500000  0.4164446440666666  0.4568419226500000
  0.7862005436500000  0.4164446440666666  0.4568419226500000
  0.2862005436500000  0.7497779774000000  0.4568419226500000
  0.7862005436500000  0.7497779774000000  0.4568419226500000
  0.2862005436500000  0.0831113107333333  0.9568419226500000
  0.7862005436500000  0.0831113107333333  0.9568419226500000
  0.2862005436500000  0.4164446440666666  0.9568419226500000
  0.7862005436500000  0.4164446440666666  0.9568419226500000
  0.2862005436500000  0.7497779774000000  0.9568419226500000
  0.7862005436500000  0.7497779774000000  0.9568419226500000
  0.2539621794500000  0.1068609958333333  0.3677493937000000
  0.7539621794500000  0.1068609958333333  0.3677493937000000
  0.2539621794500000  0.4401943291666666  0.3677493937000000
  0.7539621794500000  0.4401943291666666  0.3677493937000000
  0.2539621794500000  0.7735276624999999  0.3677493937000000
  0.7539621794500000  0.7735276624999999  0.3677493937000000
  0.2539621794500000  0.1068609958333333  0.8677493937000000
  0.7539621794500000  0.1068609958333333  0.8677493937000000
  0.2539621794500000  0.4401943291666666  0.8677493937000000
  0.7539621794500000  0.4401943291666666  0.8677493937000000
  0.2539621794500000  0.7735276624999999  0.8677493937000000
  0.7539621794500000  0.7735276624999999  0.8677493937000000
  0.0682821483500000  0.0297605872700000  0.2365426158500000
  0.5682821483500000  0.0297605872700000  0.2365426158500000
  0.0682821483500000  0.3630939206033333  0.2365426158500000
  0.5682821483500000  0.3630939206033333  0.2365426158500000
  0.0682821483500000  0.6964272539366667  0.2365426158500000
  0.5682821483500000  0.6964272539366667  0.2365426158500000
  0.0682821483500000  0.0297605872700000  0.7365426158500000
  0.5682821483500000  0.0297605872700000  0.7365426158500000
  0.0682821483500000  0.3630939206033333  0.7365426158500000
  0.5682821483500000  0.3630939206033333  0.7365426158500000
  0.0682821483500000  0.6964272539366667  0.7365426158500000
  0.5682821483500000  0.6964272539366667  0.7365426158500000
  0.0929818265500000  0.1135149958333333  0.1360618470500000
  0.5929818265500000  0.1135149958333333  0.1360618470500000
  0.0929818265500000  0.4468483291666666  0.1360618470500000
  0.5929818265500000  0.4468483291666666  0.1360618470500000
  0.0929818265500000  0.7801816625000000  0.1360618470500000
  0.5929818265500000  0.7801816625000000  0.1360618470500000
  0.0929818265500000  0.1135149958333333  0.6360618470500000
  0.5929818265500000  0.1135149958333333  0.6360618470500000
  0.0929818265500000  0.4468483291666666  0.6360618470500000
  0.5929818265500000  0.4468483291666666  0.6360618470500000
  0.0929818265500000  0.7801816625000000  0.6360618470500000
  0.5929818265500000  0.7801816625000000  0.6360618470500000
  0.0719015953000000  0.1383379175333333  0.4824853976000000
  0.5719015953000000  0.1383379175333333  0.4824853976000000
  0.0719015953000000  0.4716712508666666  0.4824853976000000
  0.5719015953000000  0.4716712508666666  0.4824853976000000
  0.0719015953000000  0.8050045842000000  0.4824853976000000
  0.5719015953000000  0.8050045842000000  0.4824853976000000
  0.0719015953000000  0.1383379175333333  0.9824853976000000
  0.5719015953000000  0.1383379175333333  0.9824853976000000
  0.0719015953000000  0.4716712508666666  0.9824853976000000
  0.5719015953000000  0.4716712508666666  0.9824853976000000
  0.0719015953000000  0.8050045842000000  0.9824853976000000
  0.5719015953000000  0.8050045842000000  0.9824853976000000
  0.0145260547150000  0.0957514017666667  0.3228479445000000
  0.5145260547150000  0.0957514017666667  0.3228479445000000
  0.0145260547150000  0.4290847351000000  0.3228479445000000
  0.5145260547150000  0.4290847351000000  0.3228479445000000
  0.0145260547150000  0.7624180684333333  0.3228479445000000
  0.5145260547150000  0.7624180684333333  0.3228479445000000
  0.0145260547150000  0.0957514017666667  0.8228479445000000
  0.5145260547150000  0.0957514017666667  0.8228479445000000
  0.0145260547150000  0.4290847351000000  0.8228479445000000
  0.5145260547150000  0.4290847351000000  0.8228479445000000
  0.0145260547150000  0.7624180684333333  0.8228479445000000
  0.5145260547150000  0.7624180684333333  0.8228479445000000
  0.1817178516000000  0.1964272539333333  0.2634573841500000
  0.6817178516000000  0.1964272539333333  0.2634573841500000
  0.1817178516000000  0.5297605872666666  0.2634573841500000
  0.6817178516000000  0.5297605872666666  0.2634573841500000
  0.1817178516000000  0.8630939206000000  0.2634573841500000
  0.6817178516000000  0.8630939206000000  0.2634573841500000
  0.1817178516000000  0.1964272539333333  0.7634573841500000
  0.6817178516000000  0.1964272539333333  0.7634573841500000
  0.1817178516000000  0.5297605872666666  0.7634573841500000
  0.6817178516000000  0.5297605872666666  0.7634573841500000
  0.1817178516000000  0.8630939206000000  0.7634573841500000
  0.6817178516000000  0.8630939206000000  0.7634573841500000
  0.1570181793500000  0.2801816641666667  0.3639381550500000
  0.6570181793500001  0.2801816641666667  0.3639381550500000
  0.1570181793500000  0.6135149974999999  0.3639381550500000
  0.6570181793500001  0.6135149974999999  0.3639381550500000
  0.1570181793500000  0.9468483308333333  0.3639381550500000
  0.6570181793500001  0.9468483308333333  0.3639381550500000
  0.1570181793500000  0.2801816641666667  0.8639381550500000
  0.6570181793500001  0.2801816641666667  0.8639381550500000
  0.1570181793500000  0.6135149974999999  0.8639381550500000
  0.6570181793500001  0.6135149974999999  0.8639381550500000
  0.1570181793500000  0.9468483308333333  0.8639381550500000
  0.6570181793500001  0.9468483308333333  0.8639381550500000
  0.1780984027500000  0.3050045831333333  0.0175146015600000
  0.6780984027500000  0.3050045831333333  0.0175146015600000
  0.1780984027500000  0.6383379164666666  0.0175146015600000
  0.6780984027500000  0.6383379164666666  0.0175146015600000
  0.1780984027500000  0.9716712498000000  0.0175146015600000
  0.6780984027500000  0.9716712498000000  0.0175146015600000
  0.1780984027500000  0.3050045831333333  0.5175146015600000
  0.6780984027500000  0.3050045831333333  0.5175146015600000
  0.1780984027500000  0.6383379164666666  0.5175146015600000
  0.6780984027500000  0.6383379164666666  0.5175146015600000
  0.1780984027500000  0.9716712498000000  0.5175146015600000
  0.6780984027500000  0.9716712498000000  0.5175146015600000
  0.2354739390000000  0.2624180661666666  0.1771520528000000
  0.7354739390000000  0.2624180661666666  0.1771520528000000
  0.2354739390000000  0.5957513994999999  0.1771520528000000
  0.7354739390000000  0.5957513994999999  0.1771520528000000
  0.2354739390000000  0.9290847328333333  0.1771520528000000
  0.7354739390000000  0.9290847328333333  0.1771520528000000
  0.2354739390000000  0.2624180661666666  0.6771520528000000
  0.7354739390000000  0.2624180661666666  0.6771520528000000
  0.2354739390000000  0.5957513994999999  0.6771520528000000
  0.7354739390000000  0.5957513994999999  0.6771520528000000
  0.2354739390000000  0.9290847328333333  0.6771520528000000
  0.7354739390000000  0.9290847328333333  0.6771520528000000
  0.4317178530500000  0.3035727441000000  0.2634573852500000
  0.9317178530500000  0.3035727441000000  0.2634573852500000
  0.4317178530500000  0.6369060774333333  0.2634573852500000
  0.9317178530500000  0.6369060774333333  0.2634573852500000
  0.4317178530500000  0.9702394107666665  0.2634573852500000
  0.9317178530500000  0.9702394107666665  0.2634573852500000
  0.4317178530500000  0.3035727441000000  0.7634573852500000
  0.9317178530500000  0.3035727441000000  0.7634573852500000
  0.4317178530500000  0.6369060774333333  0.7634573852500000
  0.9317178530500000  0.6369060774333333  0.7634573852500000
  0.4317178530500000  0.9702394107666665  0.7634573852500000
  0.9317178530500000  0.9702394107666665  0.7634573852500000
  0.4070181802500000  0.2198183356333333  0.3639381569000000
  0.9070181802499999  0.2198183356333333  0.3639381569000000
  0.4070181802500000  0.5531516689666667  0.3639381569000000
  0.9070181802499999  0.5531516689666667  0.3639381569000000
  0.4070181802500000  0.8864850022999999  0.3639381569000000
  0.9070181802499999  0.8864850022999999  0.3639381569000000
  0.4070181802500000  0.2198183356333333  0.8639381569000000
  0.9070181802499999  0.2198183356333333  0.8639381569000000
  0.4070181802500000  0.5531516689666667  0.8639381569000000
  0.9070181802499999  0.5531516689666667  0.8639381569000000
  0.4070181802500000  0.8864850022999999  0.8639381569000000
  0.9070181802499999  0.8864850022999999  0.8639381569000000
  0.4280984031000000  0.1949954173000000  0.0175146007900000
  0.9280984031000000  0.1949954173000000  0.0175146007900000
  0.4280984031000000  0.5283287506333333  0.0175146007900000
  0.9280984031000000  0.5283287506333333  0.0175146007900000
  0.4280984031000000  0.8616620839666667  0.0175146007900000
  0.9280984031000000  0.8616620839666667  0.0175146007900000
  0.4280984031000000  0.1949954173000000  0.5175146007900000
  0.9280984031000000  0.1949954173000000  0.5175146007900000
  0.4280984031000000  0.5283287506333333  0.5175146007900000
  0.9280984031000000  0.5283287506333333  0.5175146007900000
  0.4280984031000000  0.8616620839666667  0.5175146007900000
  0.9280984031000000  0.8616620839666667  0.5175146007900000
  0.4854739386000000  0.2375819328000000  0.1771520517500000
  0.9854739386000000  0.2375819328000000  0.1771520517500000
  0.4854739386000000  0.5709152661333332  0.1771520517500000
  0.9854739386000000  0.5709152661333332  0.1771520517500000
  0.4854739386000000  0.9042485994666666  0.1771520517500000
  0.9854739386000000  0.9042485994666666  0.1771520517500000
  0.4854739386000000  0.2375819328000000  0.6771520517500000
  0.9854739386000000  0.2375819328000000  0.6771520517500000
  0.4854739386000000  0.5709152661333332  0.6771520517500000
  0.9854739386000000  0.5709152661333332  0.6771520517500000
  0.4854739386000000  0.9042485994666666  0.6771520517500000
  0.9854739386000000  0.9042485994666666  0.6771520517500000
  0.3182821469500000  0.1369060774333333  0.2365426147000000
  0.8182821469500000  0.1369060774333333  0.2365426147000000
  0.3182821469500000  0.4702394107666666  0.2365426147000000
  0.8182821469500000  0.4702394107666666  0.2365426147000000
  0.3182821469500000  0.8035727440999999  0.2365426147000000
  0.8182821469500000  0.8035727440999999  0.2365426147000000
  0.3182821469500000  0.1369060774333333  0.7365426147000000
  0.8182821469500000  0.1369060774333333  0.7365426147000000
  0.3182821469500000  0.4702394107666666  0.7365426147000000
  0.8182821469500000  0.4702394107666666  0.7365426147000000
  0.3182821469500000  0.8035727440999999  0.7365426147000000
  0.8182821469500000  0.8035727440999999  0.7365426147000000
  0.3429818256500000  0.0531516706333333  0.1360618452000000
  0.8429818256500000  0.0531516706333333  0.1360618452000000
  0.3429818256500000  0.3864850039666666  0.1360618452000000
  0.8429818256500000  0.3864850039666666  0.1360618452000000
  0.3429818256500000  0.7198183373000000  0.1360618452000000
  0.8429818256500000  0.7198183373000000  0.1360618452000000
  0.3429818256500000  0.0531516706333333  0.6360618452000000
  0.8429818256500000  0.0531516706333333  0.6360618452000000
  0.3429818256500000  0.3864850039666666  0.6360618452000000
  0.8429818256500000  0.3864850039666666  0.6360618452000000
  0.3429818256500000  0.7198183373000000  0.6360618452000000
  0.8429818256500000  0.7198183373000000  0.6360618452000000
  0.3219015949500000  0.0283287495500000  0.4824853984000000
  0.8219015949499999  0.0283287495500000  0.4824853984000000
  0.3219015949500000  0.3616620828833333  0.4824853984000000
  0.8219015949499999  0.3616620828833333  0.4824853984000000
  0.3219015949500000  0.6949954162166666  0.4824853984000000
  0.8219015949499999  0.6949954162166666  0.4824853984000000
  0.3219015949500000  0.0283287495500000  0.9824853983999999
  0.8219015949499999  0.0283287495500000  0.9824853983999999
  0.3219015949500000  0.3616620828833333  0.9824853983999999
  0.8219015949499999  0.3616620828833333  0.9824853983999999
  0.3219015949500000  0.6949954162166666  0.9824853983999999
  0.8219015949499999  0.6949954162166666  0.9824853983999999
  0.2645260551000000  0.0709152638666667  0.3228479455500000
  0.7645260550999999  0.0709152638666667  0.3228479455500000
  0.2645260551000000  0.4042485971999999  0.3228479455500000
  0.7645260550999999  0.4042485971999999  0.3228479455500000
  0.2645260551000000  0.7375819305333333  0.3228479455500000
  0.7645260550999999  0.7375819305333333  0.3228479455500000
  0.2645260551000000  0.0709152638666667  0.8228479455500000
  0.7645260550999999  0.0709152638666667  0.8228479455500000
  0.2645260551000000  0.4042485971999999  0.8228479455500000
  0.7645260550999999  0.4042485971999999  0.8228479455500000
  0.2645260551000000  0.7375819305333333  0.8228479455500000
  0.7645260550999999  0.7375819305333333  0.8228479455500000
