 # Converted from .gen
    1.00000000000000
    7.572719787  0.0  -0.08113234765
    0.0  5.733054073  0.0
    -4.781486774  0.0  6.975333908
     C  H
     20  16
Direct
   0.08455824881   0.03182427172   0.3371468584
   0.114235113   0.1802320044   0.2257292307
   0.04718414933   0.1131683634   0.03565886951
   0.07218683474   0.2644431555   0.9149813666
   0.009769834567   0.1928761214   0.7338357609
   0.4154417519   0.5318242716   0.6628531416
   0.3857648879   0.6802320043   0.7742707694
   0.4528158515   0.6131683634   0.9643411305
   0.427813166   0.7644431556   0.08501863339
   0.4902301664   0.6928761215   0.2661642391
   0.9154417519   0.9681757283   0.6628531416
   0.8857648878   0.8197679957   0.7742707694
   0.9528158515   0.8868316365   0.9643411305
   0.927813166   0.7355568445   0.08501863335
   0.9902301664   0.8071238785   0.2661642391
   0.5845582488   0.4681757283   0.3371468583
   0.614235113   0.3197679956   0.2257292307
   0.5471841493   0.3868316365   0.03565886951
   0.5721868348   0.2355568446   0.9149813666
   0.5097698346   0.3071238786   0.7338357609
   0.1341407945   0.08576645504   0.4804192138
   0.1880682503   0.3504562378   0.2805775588
   0.142294092   0.4359779287   0.9688222111
   0.03287647363   0.3074741437   0.6446787516
   0.3658592064   0.585766455   0.5195807862
   0.3119317506   0.8504562377   0.7194224413
   0.3577059087   0.9359779288   0.03117778884
   0.4671235271   0.8074741437   0.3553212484
   0.8658592064   0.914233545   0.5195807862
   0.8119317506   0.6495437623   0.7194224413
   0.8577059087   0.5640220712   0.03117778886
   0.9671235271   0.6925258563   0.3553212484
   0.6341407944   0.4142335449   0.4804192138
   0.6880682503   0.1495437622   0.2805775588
   0.642294092   0.06402207129   0.9688222111
   0.5328764736   0.1925258563   0.6446787516
