generated by phonopy
   1.0
    15.1454395739999992    0.0000000000000000   -0.1622646953000000
     0.0000000000000000   17.1991622190000015    0.0000000000000000
    -9.5629735480000004    0.0000000000000000   13.9506678159999993
C H
 240  192
Direct
  0.0422791244050000  0.0106080905733333  0.1685734292000000
  0.5422791244050000  0.0106080905733333  0.1685734292000000
  0.0422791244050000  0.3439414239066666  0.1685734292000000
  0.5422791244050000  0.3439414239066666  0.1685734292000000
  0.0422791244050000  0.6772747572400000  0.1685734292000000
  0.5422791244050000  0.6772747572400000  0.1685734292000000
  0.0422791244050000  0.0106080905733333  0.6685734292000001
  0.5422791244050000  0.0106080905733333  0.6685734292000001
  0.0422791244050000  0.3439414239066666  0.6685734292000001
  0.5422791244050000  0.3439414239066666  0.6685734292000001
  0.0422791244050000  0.6772747572400000  0.6685734292000001
  0.5422791244050000  0.6772747572400000  0.6685734292000001
  0.0571175565000000  0.0600773348000000  0.1128646153500000
  0.5571175564999999  0.0600773348000000  0.1128646153500000
  0.0571175565000000  0.3934106681333334  0.1128646153500000
  0.5571175564999999  0.3934106681333334  0.1128646153500000
  0.0571175565000000  0.7267440014666666  0.1128646153500000
  0.5571175564999999  0.7267440014666666  0.1128646153500000
  0.0571175565000000  0.0600773348000000  0.6128646153500000
  0.5571175564999999  0.0600773348000000  0.6128646153500000
  0.0571175565000000  0.3934106681333334  0.6128646153500000
  0.5571175564999999  0.3934106681333334  0.6128646153500000
  0.0571175565000000  0.7267440014666666  0.6128646153500000
  0.5571175564999999  0.7267440014666666  0.6128646153500000
  0.0235920746650000  0.0377227878000000  0.0178294347550000
  0.5235920746650000  0.0377227878000000  0.0178294347550000
  0.0235920746650000  0.3710561211333333  0.0178294347550000
  0.5235920746650000  0.3710561211333333  0.0178294347550000
  0.0235920746650000  0.7043894544666666  0.0178294347550000
  0.5235920746650000  0.7043894544666666  0.0178294347550000
  0.0235920746650000  0.0377227878000000  0.5178294347550000
  0.5235920746650000  0.0377227878000000  0.5178294347550000
  0.0235920746650000  0.3710561211333333  0.5178294347550000
  0.5235920746650000  0.3710561211333333  0.5178294347550000
  0.0235920746650000  0.7043894544666666  0.5178294347550000
  0.5235920746650000  0.7043894544666666  0.5178294347550000
  0.0360934173700000  0.0881477185000000  0.4574906833000000
  0.5360934173700000  0.0881477185000000  0.4574906833000000
  0.0360934173700000  0.4214810518333333  0.4574906833000000
  0.5360934173700000  0.4214810518333333  0.4574906833000000
  0.0360934173700000  0.7548143851666667  0.4574906833000000
  0.5360934173700000  0.7548143851666667  0.4574906833000000
  0.0360934173700000  0.0881477185000000  0.9574906833000000
  0.5360934173700000  0.0881477185000000  0.9574906833000000
  0.0360934173700000  0.4214810518333333  0.9574906833000000
  0.5360934173700000  0.4214810518333333  0.9574906833000000
  0.0360934173700000  0.7548143851666667  0.9574906833000000
  0.5360934173700000  0.7548143851666667  0.9574906833000000
  0.0048849172835000  0.0642920404666667  0.3669178804500000
  0.5048849172835000  0.0642920404666667  0.3669178804500000
  0.0048849172835000  0.3976253738000000  0.3669178804500000
  0.5048849172835000  0.3976253738000000  0.3669178804500000
  0.0048849172835000  0.7309587071333332  0.3669178804500000
  0.5048849172835000  0.7309587071333332  0.3669178804500000
  0.0048849172835000  0.0642920404666667  0.8669178804500000
  0.5048849172835000  0.0642920404666667  0.8669178804500000
  0.0048849172835000  0.3976253738000000  0.8669178804500000
  0.5048849172835000  0.3976253738000000  0.8669178804500000
  0.0048849172835000  0.7309587071333332  0.8669178804500000
  0.5048849172835000  0.7309587071333332  0.8669178804500000
  0.2077208759500000  0.1772747572000000  0.3314265708000000
  0.7077208759500000  0.1772747572000000  0.3314265708000000
  0.2077208759500000  0.5106080905333333  0.3314265708000000
  0.7077208759500000  0.5106080905333333  0.3314265708000000
  0.2077208759500000  0.8439414238666667  0.3314265708000000
  0.7077208759500000  0.8439414238666667  0.3314265708000000
  0.2077208759500000  0.1772747572000000  0.8314265707999999
  0.7077208759500000  0.1772747572000000  0.8314265707999999
  0.2077208759500000  0.5106080905333333  0.8314265707999999
  0.7077208759500000  0.5106080905333333  0.8314265707999999
  0.2077208759500000  0.8439414238666667  0.8314265707999999
  0.7077208759500000  0.8439414238666667  0.8314265707999999
  0.1928824439500000  0.2267440014333333  0.3871353847000000
  0.6928824439500000  0.2267440014333333  0.3871353847000000
  0.1928824439500000  0.5600773347666667  0.3871353847000000
  0.6928824439500000  0.5600773347666667  0.3871353847000000
  0.1928824439500000  0.8934106681000000  0.3871353847000000
  0.6928824439500000  0.8934106681000000  0.3871353847000000
  0.1928824439500000  0.2267440014333333  0.8871353847000000
  0.6928824439500000  0.2267440014333333  0.8871353847000000
  0.1928824439500000  0.5600773347666667  0.8871353847000000
  0.6928824439500000  0.5600773347666667  0.8871353847000000
  0.1928824439500000  0.8934106681000000  0.8871353847000000
  0.6928824439500000  0.8934106681000000  0.8871353847000000
  0.2264079257500000  0.2043894544666667  0.4821705652500000
  0.7264079257500000  0.2043894544666667  0.4821705652500000
  0.2264079257500000  0.5377227877999999  0.4821705652500000
  0.7264079257500000  0.5377227877999999  0.4821705652500000
  0.2264079257500000  0.8710561211333332  0.4821705652500000
  0.7264079257500000  0.8710561211333332  0.4821705652500000
  0.2264079257500000  0.2043894544666667  0.9821705652500000
  0.7264079257500000  0.2043894544666667  0.9821705652500000
  0.2264079257500000  0.5377227877999999  0.9821705652500000
  0.7264079257500000  0.5377227877999999  0.9821705652500000
  0.2264079257500000  0.8710561211333332  0.9821705652500000
  0.7264079257500000  0.8710561211333332  0.9821705652500000
  0.2139065830000000  0.2548143852000000  0.0425093166950000
  0.7139065830000000  0.2548143852000000  0.0425093166950000
  0.2139065830000000  0.5881477185333333  0.0425093166950000
  0.7139065830000000  0.5881477185333333  0.0425093166950000
  0.2139065830000000  0.9214810518666666  0.0425093166950000
  0.7139065830000000  0.9214810518666666  0.0425093166950000
  0.2139065830000000  0.2548143852000000  0.5425093166950000
  0.7139065830000000  0.2548143852000000  0.5425093166950000
  0.2139065830000000  0.5881477185333333  0.5425093166950000
  0.7139065830000000  0.5881477185333333  0.5425093166950000
  0.2139065830000000  0.9214810518666666  0.5425093166950000
  0.7139065830000000  0.9214810518666666  0.5425093166950000
  0.2451150832000000  0.2309587071666667  0.1330821195500000
  0.7451150832000000  0.2309587071666667  0.1330821195500000
  0.2451150832000000  0.5642920404999999  0.1330821195500000
  0.7451150832000000  0.5642920404999999  0.1330821195500000
  0.2451150832000000  0.8976253738333333  0.1330821195500000
  0.7451150832000000  0.8976253738333333  0.1330821195500000
  0.2451150832000000  0.2309587071666667  0.6330821195500000
  0.7451150832000000  0.2309587071666667  0.6330821195500000
  0.2451150832000000  0.5642920404999999  0.6330821195500000
  0.7451150832000000  0.5642920404999999  0.6330821195500000
  0.2451150832000000  0.8976253738333333  0.6330821195500000
  0.7451150832000000  0.8976253738333333  0.6330821195500000
  0.4577208759500000  0.3227252427666666  0.3314265708000000
  0.9577208759500000  0.3227252427666666  0.3314265708000000
  0.4577208759500000  0.6560585761000000  0.3314265708000000
  0.9577208759500000  0.6560585761000000  0.3314265708000000
  0.4577208759500000  0.9893919094333332  0.3314265708000000
  0.9577208759500000  0.9893919094333332  0.3314265708000000
  0.4577208759500000  0.3227252427666666  0.8314265707999999
  0.9577208759500000  0.3227252427666666  0.8314265707999999
  0.4577208759500000  0.6560585761000000  0.8314265707999999
  0.9577208759500000  0.6560585761000000  0.8314265707999999
  0.4577208759500000  0.9893919094333332  0.8314265707999999
  0.9577208759500000  0.9893919094333332  0.8314265707999999
  0.4428824439000000  0.2732559985666667  0.3871353847000000
  0.9428824439000000  0.2732559985666667  0.3871353847000000
  0.4428824439000000  0.6065893319000000  0.3871353847000000
  0.9428824439000000  0.6065893319000000  0.3871353847000000
  0.4428824439000000  0.9399226652333332  0.3871353847000000
  0.9428824439000000  0.9399226652333332  0.3871353847000000
  0.4428824439000000  0.2732559985666667  0.8871353847000000
  0.9428824439000000  0.2732559985666667  0.8871353847000000
  0.4428824439000000  0.6065893319000000  0.8871353847000000
  0.9428824439000000  0.6065893319000000  0.8871353847000000
  0.4428824439000000  0.9399226652333332  0.8871353847000000
  0.9428824439000000  0.9399226652333332  0.8871353847000000
  0.4764079257500000  0.2956105455000000  0.4821705652500000
  0.9764079257500000  0.2956105455000000  0.4821705652500000
  0.4764079257500000  0.6289438788333332  0.4821705652500000
  0.9764079257500000  0.6289438788333332  0.4821705652500000
  0.4764079257500000  0.9622772121666667  0.4821705652500000
  0.9764079257500000  0.9622772121666667  0.4821705652500000
  0.4764079257500000  0.2956105455000000  0.9821705652500000
  0.9764079257500000  0.2956105455000000  0.9821705652500000
  0.4764079257500000  0.6289438788333332  0.9821705652500000
  0.9764079257500000  0.6289438788333332  0.9821705652500000
  0.4764079257500000  0.9622772121666667  0.9821705652500000
  0.9764079257500000  0.9622772121666667  0.9821705652500000
  0.4639065830000000  0.2451856148333333  0.0425093166750000
  0.9639065830000000  0.2451856148333333  0.0425093166750000
  0.4639065830000000  0.5785189481666666  0.0425093166750000
  0.9639065830000000  0.5785189481666666  0.0425093166750000
  0.4639065830000000  0.9118522815000000  0.0425093166750000
  0.9639065830000000  0.9118522815000000  0.0425093166750000
  0.4639065830000000  0.2451856148333333  0.5425093166750000
  0.9639065830000000  0.2451856148333333  0.5425093166750000
  0.4639065830000000  0.5785189481666666  0.5425093166750000
  0.9639065830000000  0.5785189481666666  0.5425093166750000
  0.4639065830000000  0.9118522815000000  0.5425093166750000
  0.9639065830000000  0.9118522815000000  0.5425093166750000
  0.4951150832000000  0.2690412928333333  0.1330821195500000
  0.9951150832000000  0.2690412928333333  0.1330821195500000
  0.4951150832000000  0.6023746261666667  0.1330821195500000
  0.9951150832000000  0.6023746261666667  0.1330821195500000
  0.4951150832000000  0.9357079595000000  0.1330821195500000
  0.9951150832000000  0.9357079595000000  0.1330821195500000
  0.4951150832000000  0.2690412928333333  0.6330821195500000
  0.9951150832000000  0.2690412928333333  0.6330821195500000
  0.4951150832000000  0.6023746261666667  0.6330821195500000
  0.9951150832000000  0.6023746261666667  0.6330821195500000
  0.4951150832000000  0.9357079595000000  0.6330821195500000
  0.9951150832000000  0.9357079595000000  0.6330821195500000
  0.2922791244000000  0.1560585761000000  0.1685734291500000
  0.7922791244000000  0.1560585761000000  0.1685734291500000
  0.2922791244000000  0.4893919094333333  0.1685734291500000
  0.7922791244000000  0.4893919094333333  0.1685734291500000
  0.2922791244000000  0.8227252427666666  0.1685734291500000
  0.7922791244000000  0.8227252427666666  0.1685734291500000
  0.2922791244000000  0.1560585761000000  0.6685734291500001
  0.7922791244000000  0.1560585761000000  0.6685734291500001
  0.2922791244000000  0.4893919094333333  0.6685734291500001
  0.7922791244000000  0.4893919094333333  0.6685734291500001
  0.2922791244000000  0.8227252427666666  0.6685734291500001
  0.7922791244000000  0.8227252427666666  0.6685734291500001
  0.3071175565000000  0.1065893318666667  0.1128646153500000
  0.8071175564999999  0.1065893318666667  0.1128646153500000
  0.3071175565000000  0.4399226652000000  0.1128646153500000
  0.8071175564999999  0.4399226652000000  0.1128646153500000
  0.3071175565000000  0.7732559985333333  0.1128646153500000
  0.8071175564999999  0.7732559985333333  0.1128646153500000
  0.3071175565000000  0.1065893318666667  0.6128646153500000
  0.8071175564999999  0.1065893318666667  0.6128646153500000
  0.3071175565000000  0.4399226652000000  0.6128646153500000
  0.8071175564999999  0.4399226652000000  0.6128646153500000
  0.3071175565000000  0.7732559985333333  0.6128646153500000
  0.8071175564999999  0.7732559985333333  0.6128646153500000
  0.2735920746500000  0.1289438788333333  0.0178294347550000
  0.7735920746500000  0.1289438788333333  0.0178294347550000
  0.2735920746500000  0.4622772121666666  0.0178294347550000
  0.7735920746500000  0.4622772121666666  0.0178294347550000
  0.2735920746500000  0.7956105455000000  0.0178294347550000
  0.7735920746500000  0.7956105455000000  0.0178294347550000
  0.2735920746500000  0.1289438788333333  0.5178294347550000
  0.7735920746500000  0.1289438788333333  0.5178294347550000
  0.2735920746500000  0.4622772121666666  0.5178294347550000
  0.7735920746500000  0.4622772121666666  0.5178294347550000
  0.2735920746500000  0.7956105455000000  0.5178294347550000
  0.7735920746500000  0.7956105455000000  0.5178294347550000
  0.2860934174000000  0.0785189482000000  0.4574906833000000
  0.7860934174000000  0.0785189482000000  0.4574906833000000
  0.2860934174000000  0.4118522815333333  0.4574906833000000
  0.7860934174000000  0.4118522815333333  0.4574906833000000
  0.2860934174000000  0.7451856148666667  0.4574906833000000
  0.7860934174000000  0.7451856148666667  0.4574906833000000
  0.2860934174000000  0.0785189482000000  0.9574906833000000
  0.7860934174000000  0.0785189482000000  0.9574906833000000
  0.2860934174000000  0.4118522815333333  0.9574906833000000
  0.7860934174000000  0.4118522815333333  0.9574906833000000
  0.2860934174000000  0.7451856148666667  0.9574906833000000
  0.7860934174000000  0.7451856148666667  0.9574906833000000
  0.2548849173000000  0.1023746262000000  0.3669178804500000
  0.7548849173000001  0.1023746262000000  0.3669178804500000
  0.2548849173000000  0.4357079595333334  0.3669178804500000
  0.7548849173000001  0.4357079595333334  0.3669178804500000
  0.2548849173000000  0.7690412928666667  0.3669178804500000
  0.7548849173000001  0.7690412928666667  0.3669178804500000
  0.2548849173000000  0.1023746262000000  0.8669178804500000
  0.7548849173000001  0.1023746262000000  0.8669178804500000
  0.2548849173000000  0.4357079595333334  0.8669178804500000
  0.7548849173000001  0.4357079595333334  0.8669178804500000
  0.2548849173000000  0.7690412928666667  0.8669178804500000
  0.7548849173000001  0.7690412928666667  0.8669178804500000
  0.0670703972500000  0.0285888183466667  0.2402096069000000
  0.5670703972500000  0.0285888183466667  0.2402096069000000
  0.0670703972500000  0.3619221516800000  0.2402096069000000
  0.5670703972500000  0.3619221516800000  0.2402096069000000
  0.0670703972500000  0.6952554850133332  0.2402096069000000
  0.5670703972500000  0.6952554850133332  0.2402096069000000
  0.0670703972500000  0.0285888183466667  0.7402096069000000
  0.5670703972500000  0.0285888183466667  0.7402096069000000
  0.0670703972500000  0.3619221516800000  0.7402096069000000
  0.5670703972500000  0.3619221516800000  0.7402096069000000
  0.0670703972500000  0.6952554850133332  0.7402096069000000
  0.5670703972500000  0.6952554850133332  0.7402096069000000
  0.0940341251500000  0.1168187459333333  0.1402887794000000
  0.5940341251500000  0.1168187459333333  0.1402887794000000
  0.0940341251500000  0.4501520792666667  0.1402887794000000
  0.5940341251500000  0.4501520792666667  0.1402887794000000
  0.0940341251500000  0.7834854125999999  0.1402887794000000
  0.5940341251500000  0.7834854125999999  0.1402887794000000
  0.0940341251500000  0.1168187459333333  0.6402887794000001
  0.5940341251500000  0.1168187459333333  0.6402887794000001
  0.0940341251500000  0.4501520792666667  0.6402887794000001
  0.5940341251500000  0.4501520792666667  0.6402887794000001
  0.0940341251500000  0.7834854125999999  0.6402887794000001
  0.5940341251500000  0.7834854125999999  0.6402887794000001
  0.0711470460000000  0.1453259762333333  0.4844111055500000
  0.5711470460000000  0.1453259762333333  0.4844111055500000
  0.0711470460000000  0.4786593095666667  0.4844111055500000
  0.5711470460000000  0.4786593095666667  0.4844111055500000
  0.0711470460000000  0.8119926429000000  0.4844111055500000
  0.5711470460000000  0.8119926429000000  0.4844111055500000
  0.0711470460000000  0.1453259762333333  0.9844111055500000
  0.5711470460000000  0.1453259762333333  0.9844111055500000
  0.0711470460000000  0.4786593095666667  0.9844111055500000
  0.5711470460000000  0.4786593095666667  0.9844111055500000
  0.0711470460000000  0.8119926429000000  0.9844111055500000
  0.5711470460000000  0.8119926429000000  0.9844111055500000
  0.0164382368150000  0.1024913812333333  0.3223393758000000
  0.5164382368150000  0.1024913812333333  0.3223393758000000
  0.0164382368150000  0.4358247145666666  0.3223393758000000
  0.5164382368150000  0.4358247145666666  0.3223393758000000
  0.0164382368150000  0.7691580479000000  0.3223393758000000
  0.5164382368150000  0.7691580479000000  0.3223393758000000
  0.0164382368150000  0.1024913812333333  0.8223393757999999
  0.5164382368150000  0.1024913812333333  0.8223393757999999
  0.0164382368150000  0.4358247145666666  0.8223393757999999
  0.5164382368150000  0.4358247145666666  0.8223393757999999
  0.0164382368150000  0.7691580479000000  0.8223393757999999
  0.5164382368150000  0.7691580479000000  0.8223393757999999
  0.1829296032000000  0.1952554850000000  0.2597903931000000
  0.6829296032000001  0.1952554850000000  0.2597903931000000
  0.1829296032000000  0.5285888183333333  0.2597903931000000
  0.6829296032000001  0.5285888183333333  0.2597903931000000
  0.1829296032000000  0.8619221516666666  0.2597903931000000
  0.6829296032000001  0.8619221516666666  0.2597903931000000
  0.1829296032000000  0.1952554850000000  0.7597903931000001
  0.6829296032000001  0.1952554850000000  0.7597903931000001
  0.1829296032000000  0.5285888183333333  0.7597903931000001
  0.6829296032000001  0.5285888183333333  0.7597903931000001
  0.1829296032000000  0.8619221516666666  0.7597903931000001
  0.6829296032000001  0.8619221516666666  0.7597903931000001
  0.1559658753000000  0.2834854125666667  0.3597112206500000
  0.6559658752999999  0.2834854125666667  0.3597112206500000
  0.1559658753000000  0.6168187459000000  0.3597112206500000
  0.6559658752999999  0.6168187459000000  0.3597112206500000
  0.1559658753000000  0.9501520792333333  0.3597112206500000
  0.6559658752999999  0.9501520792333333  0.3597112206500000
  0.1559658753000000  0.2834854125666667  0.8597112206499999
  0.6559658752999999  0.2834854125666667  0.8597112206499999
  0.1559658753000000  0.6168187459000000  0.8597112206499999
  0.6559658752999999  0.6168187459000000  0.8597112206499999
  0.1559658753000000  0.9501520792333333  0.8597112206499999
  0.6559658752999999  0.9501520792333333  0.8597112206499999
  0.1788529543500000  0.3119926429333333  0.0155888944200000
  0.6788529543500000  0.3119926429333333  0.0155888944200000
  0.1788529543500000  0.6453259762666665  0.0155888944200000
  0.6788529543500000  0.6453259762666665  0.0155888944200000
  0.1788529543500000  0.9786593095999999  0.0155888944200000
  0.6788529543500000  0.9786593095999999  0.0155888944200000
  0.1788529543500000  0.3119926429333333  0.5155888944200000
  0.6788529543500000  0.3119926429333333  0.5155888944200000
  0.1788529543500000  0.6453259762666665  0.5155888944200000
  0.6788529543500000  0.6453259762666665  0.5155888944200000
  0.1788529543500000  0.9786593095999999  0.5155888944200000
  0.6788529543500000  0.9786593095999999  0.5155888944200000
  0.2335617635500000  0.2691580479000000  0.1776606242000000
  0.7335617635500000  0.2691580479000000  0.1776606242000000
  0.2335617635500000  0.6024913812333332  0.1776606242000000
  0.7335617635500000  0.6024913812333332  0.1776606242000000
  0.2335617635500000  0.9358247145666666  0.1776606242000000
  0.7335617635500000  0.9358247145666666  0.1776606242000000
  0.2335617635500000  0.2691580479000000  0.6776606242000001
  0.7335617635500000  0.2691580479000000  0.6776606242000001
  0.2335617635500000  0.6024913812333332  0.6776606242000001
  0.7335617635500000  0.6024913812333332  0.6776606242000001
  0.2335617635500000  0.9358247145666666  0.6776606242000001
  0.7335617635500000  0.9358247145666666  0.6776606242000001
  0.4329296032000000  0.3047445150000000  0.2597903931000000
  0.9329296032000001  0.3047445150000000  0.2597903931000000
  0.4329296032000000  0.6380778483333334  0.2597903931000000
  0.9329296032000001  0.6380778483333334  0.2597903931000000
  0.4329296032000000  0.9714111816666666  0.2597903931000000
  0.9329296032000001  0.9714111816666666  0.2597903931000000
  0.4329296032000000  0.3047445150000000  0.7597903931000001
  0.9329296032000001  0.3047445150000000  0.7597903931000001
  0.4329296032000000  0.6380778483333334  0.7597903931000001
  0.9329296032000001  0.6380778483333334  0.7597903931000001
  0.4329296032000000  0.9714111816666666  0.7597903931000001
  0.9329296032000001  0.9714111816666666  0.7597903931000001
  0.4059658753000000  0.2165145874333333  0.3597112206500000
  0.9059658752999999  0.2165145874333333  0.3597112206500000
  0.4059658753000000  0.5498479207666667  0.3597112206500000
  0.9059658752999999  0.5498479207666667  0.3597112206500000
  0.4059658753000000  0.8831812540999999  0.3597112206500000
  0.9059658752999999  0.8831812540999999  0.3597112206500000
  0.4059658753000000  0.2165145874333333  0.8597112206499999
  0.9059658752999999  0.2165145874333333  0.8597112206499999
  0.4059658753000000  0.5498479207666667  0.8597112206499999
  0.9059658752999999  0.5498479207666667  0.8597112206499999
  0.4059658753000000  0.8831812540999999  0.8597112206499999
  0.9059658752999999  0.8831812540999999  0.8597112206499999
  0.4288529543500000  0.1880073570666667  0.0155888944300000
  0.9288529543499999  0.1880073570666667  0.0155888944300000
  0.4288529543500000  0.5213406904000000  0.0155888944300000
  0.9288529543499999  0.5213406904000000  0.0155888944300000
  0.4288529543500000  0.8546740237333333  0.0155888944300000
  0.9288529543499999  0.8546740237333333  0.0155888944300000
  0.4288529543500000  0.1880073570666667  0.5155888944300000
  0.9288529543499999  0.1880073570666667  0.5155888944300000
  0.4288529543500000  0.5213406904000000  0.5155888944300000
  0.9288529543499999  0.5213406904000000  0.5155888944300000
  0.4288529543500000  0.8546740237333333  0.5155888944300000
  0.9288529543499999  0.8546740237333333  0.5155888944300000
  0.4835617635500000  0.2308419521000000  0.1776606242000000
  0.9835617635500000  0.2308419521000000  0.1776606242000000
  0.4835617635500000  0.5641752854333333  0.1776606242000000
  0.9835617635500000  0.5641752854333333  0.1776606242000000
  0.4835617635500000  0.8975086187666667  0.1776606242000000
  0.9835617635500000  0.8975086187666667  0.1776606242000000
  0.4835617635500000  0.2308419521000000  0.6776606242000001
  0.9835617635500000  0.2308419521000000  0.6776606242000001
  0.4835617635500000  0.5641752854333333  0.6776606242000001
  0.9835617635500000  0.5641752854333333  0.6776606242000001
  0.4835617635500000  0.8975086187666667  0.6776606242000001
  0.9835617635500000  0.8975086187666667  0.6776606242000001
  0.3170703972000000  0.1380778483000000  0.2402096069000000
  0.8170703972000000  0.1380778483000000  0.2402096069000000
  0.3170703972000000  0.4714111816333333  0.2402096069000000
  0.8170703972000000  0.4714111816333333  0.2402096069000000
  0.3170703972000000  0.8047445149666667  0.2402096069000000
  0.8170703972000000  0.8047445149666667  0.2402096069000000
  0.3170703972000000  0.1380778483000000  0.7402096069000000
  0.8170703972000000  0.1380778483000000  0.7402096069000000
  0.3170703972000000  0.4714111816333333  0.7402096069000000
  0.8170703972000000  0.4714111816333333  0.7402096069000000
  0.3170703972000000  0.8047445149666667  0.7402096069000000
  0.8170703972000000  0.8047445149666667  0.7402096069000000
  0.3440341251500000  0.0498479207333333  0.1402887794000000
  0.8440341251500000  0.0498479207333333  0.1402887794000000
  0.3440341251500000  0.3831812540666666  0.1402887794000000
  0.8440341251500000  0.3831812540666666  0.1402887794000000
  0.3440341251500000  0.7165145874000000  0.1402887794000000
  0.8440341251500000  0.7165145874000000  0.1402887794000000
  0.3440341251500000  0.0498479207333333  0.6402887794000001
  0.8440341251500000  0.0498479207333333  0.6402887794000001
  0.3440341251500000  0.3831812540666666  0.6402887794000001
  0.8440341251500000  0.3831812540666666  0.6402887794000001
  0.3440341251500000  0.7165145874000000  0.6402887794000001
  0.8440341251500000  0.7165145874000000  0.6402887794000001
  0.3211470460000000  0.0213406904300000  0.4844111055500000
  0.8211470460000000  0.0213406904300000  0.4844111055500000
  0.3211470460000000  0.3546740237633333  0.4844111055500000
  0.8211470460000000  0.3546740237633333  0.4844111055500000
  0.3211470460000000  0.6880073570966667  0.4844111055500000
  0.8211470460000000  0.6880073570966667  0.4844111055500000
  0.3211470460000000  0.0213406904300000  0.9844111055500000
  0.8211470460000000  0.0213406904300000  0.9844111055500000
  0.3211470460000000  0.3546740237633333  0.9844111055500000
  0.8211470460000000  0.3546740237633333  0.9844111055500000
  0.3211470460000000  0.6880073570966667  0.9844111055500000
  0.8211470460000000  0.6880073570966667  0.9844111055500000
  0.2664382368000000  0.0641752854333333  0.3223393758000000
  0.7664382368000000  0.0641752854333333  0.3223393758000000
  0.2664382368000000  0.3975086187666667  0.3223393758000000
  0.7664382368000000  0.3975086187666667  0.3223393758000000
  0.2664382368000000  0.7308419521000000  0.3223393758000000
  0.7664382368000000  0.7308419521000000  0.3223393758000000
  0.2664382368000000  0.0641752854333333  0.8223393757999999
  0.7664382368000000  0.0641752854333333  0.8223393757999999
  0.2664382368000000  0.3975086187666667  0.8223393757999999
  0.7664382368000000  0.3975086187666667  0.8223393757999999
  0.2664382368000000  0.7308419521000000  0.8223393757999999
  0.7664382368000000  0.7308419521000000  0.8223393757999999
