 # C10 H8                               
   1.0000000000000000     
     8.0783265807449904    0.0000000000000000    0.0358276806026157
     0.0000000000000000    5.9031874922364533    0.0000000000000000
    -4.8827809268419493    0.0000000000000000    7.1061588909591729
   C    H 
    20    16
Direct
  0.0834204254971794  0.0206807792826711  0.3301380865487382
  0.1135330729368403  0.1658652968719048  0.2228736569000613
  0.0484024924056394  0.1071533327465795  0.0371674471770019
  0.0761918346293654  0.2533498533876121  0.9230125225164175
  0.0123363510182764  0.1907040618702490  0.7433272759989905
  0.4165795757404440  0.5206807792826706  0.6698619134512617
  0.3864669283007832  0.6658652968719048  0.7771263430999389
  0.4515975088319839  0.6071533327465793  0.9628325528230057
  0.4238081653706345  0.7533498533876124  0.0769874774835825
  0.4876636502193470  0.6907040618702486  0.2566727240010094
  0.9165795757404440  0.9793192207173294  0.6698619134512617
  0.8864669283007827  0.8341347031280952  0.7771263430999389
  0.9515975088319840  0.8928466672534207  0.9628325528230057
  0.9238081653706340  0.7466501466123876  0.0769874774835825
  0.9876636502193472  0.8092959381297514  0.2566727240010094
  0.5834204254971793  0.4793192207173291  0.3301380865487382
  0.6135330729368407  0.3341347031280950  0.2228736569000613
  0.5484024924056393  0.3928466672534205  0.0371674471770019
  0.5761918346293660  0.2466501466123875  0.9230125225164175
  0.5123363510182761  0.3092959381297509  0.7433272759989905
  0.1336022897954317  0.0697332244543039  0.4721341271980357
  0.1866545653630868  0.3290400086002794  0.2784084527444321
  0.1497692944144349  0.4159288635875327  0.9800601973297464
  0.0364883668469518  0.3044363293203267  0.6581103719813407
  0.3663977114421917  0.5697332244543037  0.5278658728019640
  0.3133454346369133  0.8290400086002800  0.7215915472555680
  0.3502307055855652  0.9159288635875321  0.0199398026702540
  0.4635116343906716  0.8044363293203262  0.3418896280186732
  0.8663977114421917  0.9302667755456963  0.5278658728019640
  0.8133454346369133  0.6709599913997200  0.7215915472555680
  0.8502307055855650  0.5840711364124679  0.0199398026702540
  0.9635116343906713  0.6955636706796738  0.3418896280186732
  0.6336022897954317  0.4302667755456961  0.4721341271980357
  0.6866545653630867  0.1709599913997203  0.2784084527444321
  0.6497692944144350  0.0840711364124675  0.9800601973297464
  0.5364883668469520  0.1955636706796734  0.6581103719813407
