generated by phonopy
   1.0
    16.1566531614899809    0.0000000000000000    0.0716553612052314
     0.0000000000000000   17.7095624767093582    0.0000000000000000
    -9.7655618536838986    0.0000000000000000   14.2123177819183457
C H
 240  192
Direct
  0.0417102127485897  0.0068935930942237  0.1650690432743691
  0.5417102127485897  0.0068935930942237  0.1650690432743691
  0.0417102127485897  0.3402269264275570  0.1650690432743691
  0.5417102127485897  0.3402269264275570  0.1650690432743691
  0.0417102127485897  0.6735602597608904  0.1650690432743691
  0.5417102127485897  0.6735602597608904  0.1650690432743691
  0.0417102127485897  0.0068935930942237  0.6650690432743691
  0.5417102127485897  0.0068935930942237  0.6650690432743691
  0.0417102127485897  0.3402269264275570  0.6650690432743691
  0.5417102127485897  0.3402269264275570  0.6650690432743691
  0.0417102127485897  0.6735602597608904  0.6650690432743691
  0.5417102127485897  0.6735602597608904  0.6650690432743691
  0.0567665364684201  0.0552884322906349  0.1114368284500307
  0.5567665364684201  0.0552884322906349  0.1114368284500307
  0.0567665364684201  0.3886217656239682  0.1114368284500307
  0.5567665364684201  0.3886217656239682  0.1114368284500307
  0.0567665364684201  0.7219550989573016  0.1114368284500307
  0.5567665364684201  0.7219550989573016  0.1114368284500307
  0.0567665364684201  0.0552884322906349  0.6114368284500307
  0.5567665364684201  0.0552884322906349  0.6114368284500307
  0.0567665364684201  0.3886217656239682  0.6114368284500307
  0.5567665364684201  0.3886217656239682  0.6114368284500307
  0.0567665364684201  0.7219550989573016  0.6114368284500307
  0.5567665364684201  0.7219550989573016  0.6114368284500307
  0.0242012462028197  0.0357177775821932  0.0185837235885009
  0.5242012462028197  0.0357177775821932  0.0185837235885009
  0.0242012462028197  0.3690511109155264  0.0185837235885009
  0.5242012462028197  0.3690511109155264  0.0185837235885009
  0.0242012462028197  0.7023844442488598  0.0185837235885009
  0.5242012462028197  0.7023844442488598  0.0185837235885009
  0.0242012462028197  0.0357177775821932  0.5185837235885009
  0.5242012462028197  0.0357177775821932  0.5185837235885009
  0.0242012462028197  0.3690511109155264  0.5185837235885009
  0.5242012462028197  0.3690511109155264  0.5185837235885009
  0.0242012462028197  0.7023844442488598  0.5185837235885009
  0.5242012462028197  0.7023844442488598  0.5185837235885009
  0.0380959173146827  0.0844499511292040  0.4615062612582088
  0.5380959173146826  0.0844499511292040  0.4615062612582088
  0.0380959173146827  0.4177832844625374  0.4615062612582088
  0.5380959173146826  0.4177832844625374  0.4615062612582088
  0.0380959173146827  0.7511166177958707  0.4615062612582088
  0.5380959173146826  0.7511166177958707  0.4615062612582088
  0.0380959173146827  0.0844499511292040  0.9615062612582088
  0.5380959173146826  0.0844499511292040  0.9615062612582088
  0.0380959173146827  0.4177832844625374  0.9615062612582088
  0.5380959173146826  0.4177832844625374  0.9615062612582088
  0.0380959173146827  0.7511166177958707  0.9615062612582088
  0.5380959173146826  0.7511166177958707  0.9615062612582088
  0.0061681755091382  0.0635680206234163  0.3716636379994953
  0.5061681755091382  0.0635680206234163  0.3716636379994953
  0.0061681755091382  0.3969013539567496  0.3716636379994953
  0.5061681755091382  0.3969013539567496  0.3716636379994953
  0.0061681755091382  0.7302346872900830  0.3716636379994953
  0.5061681755091382  0.7302346872900830  0.3716636379994953
  0.0061681755091382  0.0635680206234163  0.8716636379994953
  0.5061681755091382  0.0635680206234163  0.8716636379994953
  0.0061681755091382  0.3969013539567496  0.8716636379994953
  0.5061681755091382  0.3969013539567496  0.8716636379994953
  0.0061681755091382  0.7302346872900830  0.8716636379994953
  0.5061681755091382  0.7302346872900830  0.8716636379994953
  0.2082897878702220  0.1735602597608902  0.3349309567256308
  0.7082897878702220  0.1735602597608902  0.3349309567256308
  0.2082897878702220  0.5068935930942235  0.3349309567256308
  0.7082897878702220  0.5068935930942235  0.3349309567256308
  0.2082897878702220  0.8402269264275569  0.3349309567256308
  0.7082897878702220  0.8402269264275569  0.3349309567256308
  0.2082897878702220  0.1735602597608902  0.8349309567256309
  0.7082897878702220  0.1735602597608902  0.8349309567256309
  0.2082897878702220  0.5068935930942235  0.8349309567256309
  0.7082897878702220  0.5068935930942235  0.8349309567256309
  0.2082897878702220  0.8402269264275569  0.8349309567256309
  0.7082897878702220  0.8402269264275569  0.8349309567256309
  0.1932334641503916  0.2219550989573016  0.3885631715499694
  0.6932334641503917  0.2219550989573016  0.3885631715499694
  0.1932334641503916  0.5552884322906348  0.3885631715499694
  0.6932334641503917  0.5552884322906348  0.3885631715499694
  0.1932334641503916  0.8886217656239683  0.3885631715499694
  0.6932334641503917  0.8886217656239683  0.3885631715499694
  0.1932334641503916  0.2219550989573016  0.8885631715499694
  0.6932334641503917  0.2219550989573016  0.8885631715499694
  0.1932334641503916  0.5552884322906348  0.8885631715499694
  0.6932334641503917  0.5552884322906348  0.8885631715499694
  0.1932334641503916  0.8886217656239683  0.8885631715499694
  0.6932334641503917  0.8886217656239683  0.8885631715499694
  0.2257987544159920  0.2023844442488598  0.4814162764115029
  0.7257987544159920  0.2023844442488598  0.4814162764115029
  0.2257987544159920  0.5357177775821931  0.4814162764115029
  0.7257987544159920  0.5357177775821931  0.4814162764115029
  0.2257987544159920  0.8690511109155264  0.4814162764115029
  0.7257987544159920  0.8690511109155264  0.4814162764115029
  0.2257987544159920  0.2023844442488598  0.9814162764115029
  0.7257987544159920  0.2023844442488598  0.9814162764115029
  0.2257987544159920  0.5357177775821931  0.9814162764115029
  0.7257987544159920  0.5357177775821931  0.9814162764115029
  0.2257987544159920  0.8690511109155264  0.9814162764115029
  0.7257987544159920  0.8690511109155264  0.9814162764115029
  0.2119040826853172  0.2511166177958708  0.0384937387417913
  0.7119040826853172  0.2511166177958708  0.0384937387417913
  0.2119040826853172  0.5844499511292041  0.0384937387417913
  0.7119040826853172  0.5844499511292041  0.0384937387417913
  0.2119040826853172  0.9177832844625373  0.0384937387417913
  0.7119040826853172  0.9177832844625373  0.0384937387417913
  0.2119040826853172  0.2511166177958708  0.5384937387417913
  0.7119040826853172  0.2511166177958708  0.5384937387417913
  0.2119040826853172  0.5844499511292041  0.5384937387417913
  0.7119040826853172  0.5844499511292041  0.5384937387417913
  0.2119040826853172  0.9177832844625373  0.5384937387417913
  0.7119040826853172  0.9177832844625373  0.5384937387417913
  0.2438318251096735  0.2302346872900828  0.1283363620005047
  0.7438318251096735  0.2302346872900828  0.1283363620005047
  0.2438318251096735  0.5635680206234162  0.1283363620005047
  0.7438318251096735  0.5635680206234162  0.1283363620005047
  0.2438318251096735  0.8969013539567495  0.1283363620005047
  0.7438318251096735  0.8969013539567495  0.1283363620005047
  0.2438318251096735  0.2302346872900828  0.6283363620005047
  0.7438318251096735  0.2302346872900828  0.6283363620005047
  0.2438318251096735  0.5635680206234162  0.6283363620005047
  0.7438318251096735  0.5635680206234162  0.6283363620005047
  0.2438318251096735  0.8969013539567495  0.6283363620005047
  0.7438318251096735  0.8969013539567495  0.6283363620005047
  0.4582897878702220  0.3264397402391098  0.3349309567256308
  0.9582897878702220  0.3264397402391098  0.3349309567256308
  0.4582897878702220  0.6597730735724431  0.3349309567256308
  0.9582897878702220  0.6597730735724431  0.3349309567256308
  0.4582897878702220  0.9931064069057763  0.3349309567256308
  0.9582897878702220  0.9931064069057763  0.3349309567256308
  0.4582897878702220  0.3264397402391098  0.8349309567256309
  0.9582897878702220  0.3264397402391098  0.8349309567256309
  0.4582897878702220  0.6597730735724431  0.8349309567256309
  0.9582897878702220  0.6597730735724431  0.8349309567256309
  0.4582897878702220  0.9931064069057763  0.8349309567256309
  0.9582897878702220  0.9931064069057763  0.8349309567256309
  0.4432334641503913  0.2780449010426984  0.3885631715499694
  0.9432334641503913  0.2780449010426984  0.3885631715499694
  0.4432334641503913  0.6113782343760317  0.3885631715499694
  0.9432334641503913  0.6113782343760317  0.3885631715499694
  0.4432334641503913  0.9447115677093649  0.3885631715499694
  0.9432334641503913  0.9447115677093649  0.3885631715499694
  0.4432334641503913  0.2780449010426984  0.8885631715499694
  0.9432334641503913  0.2780449010426984  0.8885631715499694
  0.4432334641503913  0.6113782343760317  0.8885631715499694
  0.9432334641503913  0.6113782343760317  0.8885631715499694
  0.4432334641503913  0.9447115677093649  0.8885631715499694
  0.9432334641503913  0.9447115677093649  0.8885631715499694
  0.4757987544159920  0.2976155557511402  0.4814162764115029
  0.9757987544159921  0.2976155557511402  0.4814162764115029
  0.4757987544159920  0.6309488890844734  0.4814162764115029
  0.9757987544159921  0.6309488890844734  0.4814162764115029
  0.4757987544159920  0.9642822224178068  0.4814162764115029
  0.9757987544159921  0.9642822224178068  0.4814162764115029
  0.4757987544159920  0.2976155557511402  0.9814162764115029
  0.9757987544159921  0.2976155557511402  0.9814162764115029
  0.4757987544159920  0.6309488890844734  0.9814162764115029
  0.9757987544159921  0.6309488890844734  0.9814162764115029
  0.4757987544159920  0.9642822224178068  0.9814162764115029
  0.9757987544159921  0.9642822224178068  0.9814162764115029
  0.4619040826853170  0.2488833822041292  0.0384937387417913
  0.9619040826853170  0.2488833822041292  0.0384937387417913
  0.4619040826853170  0.5822167155374625  0.0384937387417913
  0.9619040826853170  0.5822167155374625  0.0384937387417913
  0.4619040826853170  0.9155500488707959  0.0384937387417913
  0.9619040826853170  0.9155500488707959  0.0384937387417913
  0.4619040826853170  0.2488833822041292  0.5384937387417913
  0.9619040826853170  0.2488833822041292  0.5384937387417913
  0.4619040826853170  0.5822167155374625  0.5384937387417913
  0.9619040826853170  0.5822167155374625  0.5384937387417913
  0.4619040826853170  0.9155500488707959  0.5384937387417913
  0.9619040826853170  0.9155500488707959  0.5384937387417913
  0.4938318251096736  0.2697653127099171  0.1283363620005047
  0.9938318251096736  0.2697653127099171  0.1283363620005047
  0.4938318251096736  0.6030986460432504  0.1283363620005047
  0.9938318251096736  0.6030986460432504  0.1283363620005047
  0.4938318251096736  0.9364319793765837  0.1283363620005047
  0.9938318251096736  0.9364319793765837  0.1283363620005047
  0.4938318251096736  0.2697653127099171  0.6283363620005047
  0.9938318251096736  0.2697653127099171  0.6283363620005047
  0.4938318251096736  0.6030986460432504  0.6283363620005047
  0.9938318251096736  0.6030986460432504  0.6283363620005047
  0.4938318251096736  0.9364319793765837  0.6283363620005047
  0.9938318251096736  0.9364319793765837  0.6283363620005047
  0.2917102127485897  0.1597730735724430  0.1650690432743691
  0.7917102127485897  0.1597730735724430  0.1650690432743691
  0.2917102127485897  0.4931064069057763  0.1650690432743691
  0.7917102127485897  0.4931064069057763  0.1650690432743691
  0.2917102127485897  0.8264397402391097  0.1650690432743691
  0.7917102127485897  0.8264397402391097  0.1650690432743691
  0.2917102127485897  0.1597730735724430  0.6650690432743691
  0.7917102127485897  0.1597730735724430  0.6650690432743691
  0.2917102127485897  0.4931064069057763  0.6650690432743691
  0.7917102127485897  0.4931064069057763  0.6650690432743691
  0.2917102127485897  0.8264397402391097  0.6650690432743691
  0.7917102127485897  0.8264397402391097  0.6650690432743691
  0.3067665364684203  0.1113782343760317  0.1114368284500307
  0.8067665364684203  0.1113782343760317  0.1114368284500307
  0.3067665364684203  0.4447115677093650  0.1114368284500307
  0.8067665364684203  0.4447115677093650  0.1114368284500307
  0.3067665364684203  0.7780449010426983  0.1114368284500307
  0.8067665364684203  0.7780449010426983  0.1114368284500307
  0.3067665364684203  0.1113782343760317  0.6114368284500307
  0.8067665364684203  0.1113782343760317  0.6114368284500307
  0.3067665364684203  0.4447115677093650  0.6114368284500307
  0.8067665364684203  0.4447115677093650  0.6114368284500307
  0.3067665364684203  0.7780449010426983  0.6114368284500307
  0.8067665364684203  0.7780449010426983  0.6114368284500307
  0.2742012462028197  0.1309488890844735  0.0185837235885009
  0.7742012462028196  0.1309488890844735  0.0185837235885009
  0.2742012462028197  0.4642822224178068  0.0185837235885009
  0.7742012462028196  0.4642822224178068  0.0185837235885009
  0.2742012462028197  0.7976155557511402  0.0185837235885009
  0.7742012462028196  0.7976155557511402  0.0185837235885009
  0.2742012462028197  0.1309488890844735  0.5185837235885009
  0.7742012462028196  0.1309488890844735  0.5185837235885009
  0.2742012462028197  0.4642822224178068  0.5185837235885009
  0.7742012462028196  0.4642822224178068  0.5185837235885009
  0.2742012462028197  0.7976155557511402  0.5185837235885009
  0.7742012462028196  0.7976155557511402  0.5185837235885009
  0.2880959173146830  0.0822167155374625  0.4615062612582088
  0.7880959173146830  0.0822167155374625  0.4615062612582088
  0.2880959173146830  0.4155500488707958  0.4615062612582088
  0.7880959173146830  0.4155500488707958  0.4615062612582088
  0.2880959173146830  0.7488833822041291  0.4615062612582088
  0.7880959173146830  0.7488833822041291  0.4615062612582088
  0.2880959173146830  0.0822167155374625  0.9615062612582088
  0.7880959173146830  0.0822167155374625  0.9615062612582088
  0.2880959173146830  0.4155500488707958  0.9615062612582088
  0.7880959173146830  0.4155500488707958  0.9615062612582088
  0.2880959173146830  0.7488833822041291  0.9615062612582088
  0.7880959173146830  0.7488833822041291  0.9615062612582088
  0.2561681755091381  0.1030986460432503  0.3716636379994953
  0.7561681755091381  0.1030986460432503  0.3716636379994953
  0.2561681755091381  0.4364319793765836  0.3716636379994953
  0.7561681755091381  0.4364319793765836  0.3716636379994953
  0.2561681755091381  0.7697653127099169  0.3716636379994953
  0.7561681755091381  0.7697653127099169  0.3716636379994953
  0.2561681755091381  0.1030986460432503  0.8716636379994953
  0.7561681755091381  0.1030986460432503  0.8716636379994953
  0.2561681755091381  0.4364319793765836  0.8716636379994953
  0.7561681755091381  0.4364319793765836  0.8716636379994953
  0.2561681755091381  0.7697653127099169  0.8716636379994953
  0.7561681755091381  0.7697653127099169  0.8716636379994953
  0.0668011448977159  0.0232444081514346  0.2360670635990179
  0.5668011448977158  0.0232444081514346  0.2360670635990179
  0.0668011448977159  0.3565777414847680  0.2360670635990179
  0.5668011448977158  0.3565777414847680  0.2360670635990179
  0.0668011448977159  0.6899110748181012  0.2360670635990179
  0.5668011448977158  0.6899110748181012  0.2360670635990179
  0.0668011448977159  0.0232444081514346  0.7360670635990179
  0.5668011448977158  0.0232444081514346  0.7360670635990179
  0.0668011448977159  0.3565777414847680  0.7360670635990179
  0.5668011448977158  0.3565777414847680  0.7360670635990179
  0.0668011448977159  0.6899110748181012  0.7360670635990179
  0.5668011448977158  0.6899110748181012  0.7360670635990179
  0.0933272826815434  0.1096800028667598  0.1392042263722161
  0.5933272826815434  0.1096800028667598  0.1392042263722161
  0.0933272826815434  0.4430133362000931  0.1392042263722161
  0.5933272826815434  0.4430133362000931  0.1392042263722161
  0.0933272826815434  0.7763466695334265  0.1392042263722161
  0.5933272826815434  0.7763466695334265  0.1392042263722161
  0.0933272826815434  0.1096800028667598  0.6392042263722161
  0.5933272826815434  0.1096800028667598  0.6392042263722161
  0.0933272826815434  0.4430133362000931  0.6392042263722161
  0.5933272826815434  0.4430133362000931  0.6392042263722161
  0.0933272826815434  0.7763466695334265  0.6392042263722161
  0.5933272826815434  0.7763466695334265  0.6392042263722161
  0.0748846472072175  0.1386429545291776  0.4900300986648732
  0.5748846472072174  0.1386429545291776  0.4900300986648732
  0.0748846472072175  0.4719762878625109  0.4900300986648732
  0.5748846472072174  0.4719762878625109  0.4900300986648732
  0.0748846472072175  0.8053096211958441  0.4900300986648732
  0.5748846472072174  0.8053096211958441  0.4900300986648732
  0.0748846472072175  0.1386429545291776  0.9900300986648731
  0.5748846472072174  0.1386429545291776  0.9900300986648731
  0.0748846472072175  0.4719762878625109  0.9900300986648731
  0.5748846472072174  0.4719762878625109  0.9900300986648731
  0.0748846472072175  0.8053096211958441  0.9900300986648731
  0.5748846472072174  0.8053096211958441  0.9900300986648731
  0.0182441834234759  0.1014787764401089  0.3290551859906704
  0.5182441834234759  0.1014787764401089  0.3290551859906704
  0.0182441834234759  0.4348121097734422  0.3290551859906704
  0.5182441834234759  0.4348121097734422  0.3290551859906704
  0.0182441834234759  0.7681454431067755  0.3290551859906704
  0.5182441834234759  0.7681454431067755  0.3290551859906704
  0.0182441834234759  0.1014787764401089  0.8290551859906703
  0.5182441834234759  0.1014787764401089  0.8290551859906703
  0.0182441834234759  0.4348121097734422  0.8290551859906703
  0.5182441834234759  0.4348121097734422  0.8290551859906703
  0.0182441834234759  0.7681454431067755  0.8290551859906703
  0.5182441834234759  0.7681454431067755  0.8290551859906703
  0.1831988557210958  0.1899110748181012  0.2639329364009820
  0.6831988557210958  0.1899110748181012  0.2639329364009820
  0.1831988557210958  0.5232444081514346  0.2639329364009820
  0.6831988557210958  0.5232444081514346  0.2639329364009820
  0.1831988557210958  0.8565777414847680  0.2639329364009820
  0.6831988557210958  0.8565777414847680  0.2639329364009820
  0.1831988557210958  0.1899110748181012  0.7639329364009819
  0.6831988557210958  0.1899110748181012  0.7639329364009819
  0.1831988557210958  0.5232444081514346  0.7639329364009819
  0.6831988557210958  0.5232444081514346  0.7639329364009819
  0.1831988557210958  0.8565777414847680  0.7639329364009819
  0.6831988557210958  0.8565777414847680  0.7639329364009819
  0.1566727173184566  0.2763466695334267  0.3607957736277840
  0.6566727173184567  0.2763466695334267  0.3607957736277840
  0.1566727173184566  0.6096800028667599  0.3607957736277840
  0.6566727173184567  0.6096800028667599  0.3607957736277840
  0.1566727173184566  0.9430133362000933  0.3607957736277840
  0.6566727173184567  0.9430133362000933  0.3607957736277840
  0.1566727173184566  0.2763466695334267  0.8607957736277840
  0.6566727173184567  0.2763466695334267  0.8607957736277840
  0.1566727173184566  0.6096800028667599  0.8607957736277840
  0.6566727173184567  0.6096800028667599  0.8607957736277840
  0.1566727173184566  0.9430133362000933  0.8607957736277840
  0.6566727173184567  0.9430133362000933  0.8607957736277840
  0.1751153527927826  0.3053096211958440  0.0099699013351270
  0.6751153527927826  0.3053096211958440  0.0099699013351270
  0.1751153527927826  0.6386429545291774  0.0099699013351270
  0.6751153527927826  0.6386429545291774  0.0099699013351270
  0.1751153527927826  0.9719762878625107  0.0099699013351270
  0.6751153527927826  0.9719762878625107  0.0099699013351270
  0.1751153527927826  0.3053096211958440  0.5099699013351270
  0.6751153527927826  0.3053096211958440  0.5099699013351270
  0.1751153527927826  0.6386429545291774  0.5099699013351270
  0.6751153527927826  0.6386429545291774  0.5099699013351270
  0.1751153527927826  0.9719762878625107  0.5099699013351270
  0.6751153527927826  0.9719762878625107  0.5099699013351270
  0.2317558171953358  0.2681454431067753  0.1709448140093366
  0.7317558171953358  0.2681454431067753  0.1709448140093366
  0.2317558171953358  0.6014787764401086  0.1709448140093366
  0.7317558171953358  0.6014787764401086  0.1709448140093366
  0.2317558171953358  0.9348121097734420  0.1709448140093366
  0.7317558171953358  0.9348121097734420  0.1709448140093366
  0.2317558171953358  0.2681454431067753  0.6709448140093366
  0.7317558171953358  0.2681454431067753  0.6709448140093366
  0.2317558171953358  0.6014787764401086  0.6709448140093366
  0.7317558171953358  0.6014787764401086  0.6709448140093366
  0.2317558171953358  0.9348121097734420  0.6709448140093366
  0.7317558171953358  0.9348121097734420  0.6709448140093366
  0.4331988557210958  0.3100889251818987  0.2639329364009820
  0.9331988557210958  0.3100889251818987  0.2639329364009820
  0.4331988557210958  0.6434222585152320  0.2639329364009820
  0.9331988557210958  0.6434222585152320  0.2639329364009820
  0.4331988557210958  0.9767555918485653  0.2639329364009820
  0.9331988557210958  0.9767555918485653  0.2639329364009820
  0.4331988557210958  0.3100889251818987  0.7639329364009819
  0.9331988557210958  0.3100889251818987  0.7639329364009819
  0.4331988557210958  0.6434222585152320  0.7639329364009819
  0.9331988557210958  0.6434222585152320  0.7639329364009819
  0.4331988557210958  0.9767555918485653  0.7639329364009819
  0.9331988557210958  0.9767555918485653  0.7639329364009819
  0.4066727173184567  0.2236533304665733  0.3607957736277840
  0.9066727173184567  0.2236533304665733  0.3607957736277840
  0.4066727173184567  0.5569866637999066  0.3607957736277840
  0.9066727173184567  0.5569866637999066  0.3607957736277840
  0.4066727173184567  0.8903199971332399  0.3607957736277840
  0.9066727173184567  0.8903199971332399  0.3607957736277840
  0.4066727173184567  0.2236533304665733  0.8607957736277840
  0.9066727173184567  0.2236533304665733  0.8607957736277840
  0.4066727173184567  0.5569866637999066  0.8607957736277840
  0.9066727173184567  0.5569866637999066  0.8607957736277840
  0.4066727173184567  0.8903199971332399  0.8607957736277840
  0.9066727173184567  0.8903199971332399  0.8607957736277840
  0.4251153527927825  0.1946903788041560  0.0099699013351270
  0.9251153527927825  0.1946903788041560  0.0099699013351270
  0.4251153527927825  0.5280237121374892  0.0099699013351270
  0.9251153527927825  0.5280237121374892  0.0099699013351270
  0.4251153527927825  0.8613570454708226  0.0099699013351270
  0.9251153527927825  0.8613570454708226  0.0099699013351270
  0.4251153527927825  0.1946903788041560  0.5099699013351270
  0.9251153527927825  0.1946903788041560  0.5099699013351270
  0.4251153527927825  0.5280237121374892  0.5099699013351270
  0.9251153527927825  0.5280237121374892  0.5099699013351270
  0.4251153527927825  0.8613570454708226  0.5099699013351270
  0.9251153527927825  0.8613570454708226  0.5099699013351270
  0.4817558171953357  0.2318545568932246  0.1709448140093366
  0.9817558171953357  0.2318545568932246  0.1709448140093366
  0.4817558171953357  0.5651878902265579  0.1709448140093366
  0.9817558171953357  0.5651878902265579  0.1709448140093366
  0.4817558171953357  0.8985212235598913  0.1709448140093366
  0.9817558171953357  0.8985212235598913  0.1709448140093366
  0.4817558171953357  0.2318545568932246  0.6709448140093366
  0.9817558171953357  0.2318545568932246  0.6709448140093366
  0.4817558171953357  0.5651878902265579  0.6709448140093366
  0.9817558171953357  0.5651878902265579  0.6709448140093366
  0.4817558171953357  0.8985212235598913  0.6709448140093366
  0.9817558171953357  0.8985212235598913  0.6709448140093366
  0.3168011448977158  0.1434222585152320  0.2360670635990179
  0.8168011448977158  0.1434222585152320  0.2360670635990179
  0.3168011448977158  0.4767555918485654  0.2360670635990179
  0.8168011448977158  0.4767555918485654  0.2360670635990179
  0.3168011448977158  0.8100889251818987  0.2360670635990179
  0.8168011448977158  0.8100889251818987  0.2360670635990179
  0.3168011448977158  0.1434222585152320  0.7360670635990179
  0.8168011448977158  0.1434222585152320  0.7360670635990179
  0.3168011448977158  0.4767555918485654  0.7360670635990179
  0.8168011448977158  0.4767555918485654  0.7360670635990179
  0.3168011448977158  0.8100889251818987  0.7360670635990179
  0.8168011448977158  0.8100889251818987  0.7360670635990179
  0.3433272826815433  0.0569866637999068  0.1392042263722161
  0.8433272826815433  0.0569866637999068  0.1392042263722161
  0.3433272826815433  0.3903199971332401  0.1392042263722161
  0.8433272826815433  0.3903199971332401  0.1392042263722161
  0.3433272826815433  0.7236533304665734  0.1392042263722161
  0.8433272826815433  0.7236533304665734  0.1392042263722161
  0.3433272826815433  0.0569866637999068  0.6392042263722161
  0.8433272826815433  0.0569866637999068  0.6392042263722161
  0.3433272826815433  0.3903199971332401  0.6392042263722161
  0.8433272826815433  0.3903199971332401  0.6392042263722161
  0.3433272826815433  0.7236533304665734  0.6392042263722161
  0.8433272826815433  0.7236533304665734  0.6392042263722161
  0.3248846472072175  0.0280237121374892  0.4900300986648732
  0.8248846472072175  0.0280237121374892  0.4900300986648732
  0.3248846472072175  0.3613570454708225  0.4900300986648732
  0.8248846472072175  0.3613570454708225  0.4900300986648732
  0.3248846472072175  0.6946903788041557  0.4900300986648732
  0.8248846472072175  0.6946903788041557  0.4900300986648732
  0.3248846472072175  0.0280237121374892  0.9900300986648731
  0.8248846472072175  0.0280237121374892  0.9900300986648731
  0.3248846472072175  0.3613570454708225  0.9900300986648731
  0.8248846472072175  0.3613570454708225  0.9900300986648731
  0.3248846472072175  0.6946903788041557  0.9900300986648731
  0.8248846472072175  0.6946903788041557  0.9900300986648731
  0.2682441834234760  0.0651878902265578  0.3290551859906704
  0.7682441834234760  0.0651878902265578  0.3290551859906704
  0.2682441834234760  0.3985212235598912  0.3290551859906704
  0.7682441834234760  0.3985212235598912  0.3290551859906704
  0.2682441834234760  0.7318545568932244  0.3290551859906704
  0.7682441834234760  0.7318545568932244  0.3290551859906704
  0.2682441834234760  0.0651878902265578  0.8290551859906703
  0.7682441834234760  0.0651878902265578  0.8290551859906703
  0.2682441834234760  0.3985212235598912  0.8290551859906703
  0.7682441834234760  0.3985212235598912  0.8290551859906703
  0.2682441834234760  0.7318545568932244  0.8290551859906703
  0.7682441834234760  0.7318545568932244  0.8290551859906703
