 # Converted from .gen
    1.00000000000000
    7.941379335  0.0  0.03522031444
    0.0  5.803114134  0.0
    -4.800005937  0.0  6.985692248
     C  H
     20  16
Direct
   0.08660472849   0.03420441813   0.3374421046
   0.1143818591   0.1783618899   0.2242988159
   0.04733232764   0.1107564275   0.03482569492
   0.07229814656   0.2569766107   0.9130342858
   0.007679761566   0.1856697901   0.731810415
   0.4133952683   0.5342044165   0.6625578937
   0.3856181283   0.6783618836   0.7757011793
   0.4526676685   0.6107564254   0.9651743036
   0.4277018593   0.7569766137   0.08696571621
   0.4923202505   0.685669796   0.2681895893
   0.9133952661   0.9657955852   0.6625578923
   0.8856181308   0.8216381157   0.7757011797
   0.952667673   0.8892435727   0.9651743049
   0.9277018642   0.7430233841   0.08696571758
   0.9923202507   0.8143302046   0.2681895889
   0.5866047307   0.4657955836   0.337442106
   0.6143818565   0.3216381094   0.2242988155
   0.5473323231   0.3892435706   0.03482569355
   0.5722981417   0.243023387   0.9130342844
   0.5076797614   0.3143302105   0.7318104154
   0.1372645541   0.08766765182   0.4807157588
   0.1871777464   0.3453765612   0.2775177879
   0.1436770586   0.4245461499   0.9657071388
   0.02885421725   0.2967713977   0.6409746627
   0.3627354376   0.5876676472   0.5192842373
   0.312822229   0.8453765484   0.7224822025
   0.356322955   0.9245461566   0.03429286591
   0.4711458111   0.796771412   0.3590253477
   0.8627354303   0.9123323571   0.5192842339
   0.8128222309   0.6546234512   0.7224822027
   0.8563229629   0.5754538398   0.0342928684
   0.9711458088   0.70322859   0.3590253462
   0.6372645614   0.4123323525   0.4807157623
   0.6871777445   0.1546234384   0.2775177877
   0.6436770506   0.07545384655   0.9657071363
   0.5288542195   0.2032286043   0.6409746642
