generated by phonopy
   1.0
    15.8827586699999994    0.0000000000000000    0.0704406288800000
     0.0000000000000000   17.4093424020000000    0.0000000000000000
    -9.6000118739999998    0.0000000000000000   13.9713844960000007
C H
 240  192
Direct
  0.0433023642450000  0.0114014727100000  0.1687210523000000
  0.5433023642450000  0.0114014727100000  0.1687210523000000
  0.0433023642450000  0.3447348060433333  0.1687210523000000
  0.5433023642450000  0.3447348060433333  0.1687210523000000
  0.0433023642450000  0.6780681393766665  0.1687210523000000
  0.5433023642450000  0.6780681393766665  0.1687210523000000
  0.0433023642450000  0.0114014727100000  0.6687210523000000
  0.5433023642450000  0.0114014727100000  0.6687210523000000
  0.0433023642450000  0.3447348060433333  0.6687210523000000
  0.5433023642450000  0.3447348060433333  0.6687210523000000
  0.0433023642450000  0.6780681393766665  0.6687210523000000
  0.5433023642450000  0.6780681393766665  0.6687210523000000
  0.0571909295500000  0.0594539633000000  0.1121494079500000
  0.5571909295500000  0.0594539633000000  0.1121494079500000
  0.0571909295500000  0.3927872966333333  0.1121494079500000
  0.5571909295500000  0.3927872966333333  0.1121494079500000
  0.0571909295500000  0.7261206299666667  0.1121494079500000
  0.5571909295500000  0.7261206299666667  0.1121494079500000
  0.0571909295500000  0.0594539633000000  0.6121494079500001
  0.5571909295500000  0.0594539633000000  0.6121494079500001
  0.0571909295500000  0.3927872966333333  0.6121494079500001
  0.5571909295500000  0.3927872966333333  0.6121494079500001
  0.0571909295500000  0.7261206299666667  0.6121494079500001
  0.5571909295500000  0.7261206299666667  0.6121494079500001
  0.0236661638200000  0.0369188091666667  0.0174128474600000
  0.5236661638200000  0.0369188091666667  0.0174128474600000
  0.0236661638200000  0.3702521424999999  0.0174128474600000
  0.5236661638200000  0.3702521424999999  0.0174128474600000
  0.0236661638200000  0.7035854758333333  0.0174128474600000
  0.5236661638200000  0.7035854758333333  0.0174128474600000
  0.0236661638200000  0.0369188091666667  0.5174128474600000
  0.5236661638200000  0.0369188091666667  0.5174128474600000
  0.0236661638200000  0.3702521424999999  0.5174128474600000
  0.5236661638200000  0.3702521424999999  0.5174128474600000
  0.0236661638200000  0.7035854758333333  0.5174128474600000
  0.5236661638200000  0.7035854758333333  0.5174128474600000
  0.0361490732800000  0.0856588702333333  0.4565171429000000
  0.5361490732800001  0.0856588702333333  0.4565171429000000
  0.0361490732800000  0.4189922035666667  0.4565171429000000
  0.5361490732800001  0.4189922035666667  0.4565171429000000
  0.0361490732800000  0.7523255368999999  0.4565171429000000
  0.5361490732800001  0.7523255368999999  0.4565171429000000
  0.0361490732800000  0.0856588702333333  0.9565171429000000
  0.5361490732800001  0.0856588702333333  0.9565171429000000
  0.0361490732800000  0.4189922035666667  0.9565171429000000
  0.5361490732800001  0.4189922035666667  0.9565171429000000
  0.0361490732800000  0.7523255368999999  0.9565171429000000
  0.5361490732800001  0.7523255368999999  0.9565171429000000
  0.0038398807830000  0.0618899300333333  0.3659052075000000
  0.5038398807830000  0.0618899300333333  0.3659052075000000
  0.0038398807830000  0.3952232633666666  0.3659052075000000
  0.5038398807830000  0.3952232633666666  0.3659052075000000
  0.0038398807830000  0.7285565966999999  0.3659052075000000
  0.5038398807830000  0.7285565966999999  0.3659052075000000
  0.0038398807830000  0.0618899300333333  0.8659052075000000
  0.5038398807830000  0.0618899300333333  0.8659052075000000
  0.0038398807830000  0.3952232633666666  0.8659052075000000
  0.5038398807830000  0.3952232633666666  0.8659052075000000
  0.0038398807830000  0.7285565966999999  0.8659052075000000
  0.5038398807830000  0.7285565966999999  0.8659052075000000
  0.2066976341500000  0.1780681388333333  0.3312789468500000
  0.7066976341500000  0.1780681388333333  0.3312789468500000
  0.2066976341500000  0.5114014721666666  0.3312789468500000
  0.7066976341500000  0.5114014721666666  0.3312789468500000
  0.2066976341500000  0.8447348054999999  0.3312789468500000
  0.7066976341500000  0.8447348054999999  0.3312789468500000
  0.2066976341500000  0.1780681388333333  0.8312789468499999
  0.7066976341500000  0.1780681388333333  0.8312789468499999
  0.2066976341500000  0.5114014721666666  0.8312789468499999
  0.7066976341500000  0.5114014721666666  0.8312789468499999
  0.2066976341500000  0.8447348054999999  0.8312789468499999
  0.7066976341500000  0.8447348054999999  0.8312789468499999
  0.1928090641500000  0.2261206278666667  0.3878505896500000
  0.6928090641500000  0.2261206278666667  0.3878505896500000
  0.1928090641500000  0.5594539612000000  0.3878505896500000
  0.6928090641500000  0.5594539612000000  0.3878505896500000
  0.1928090641500000  0.8927872945333333  0.3878505896500000
  0.6928090641500000  0.8927872945333333  0.3878505896500000
  0.1928090641500000  0.2261206278666667  0.8878505896500000
  0.6928090641500000  0.2261206278666667  0.8878505896500000
  0.1928090641500000  0.5594539612000000  0.8878505896500000
  0.6928090641500000  0.5594539612000000  0.8878505896500000
  0.1928090641500000  0.8927872945333333  0.8878505896500000
  0.6928090641500000  0.8927872945333333  0.8878505896500000
  0.2263338342500000  0.2035854751333333  0.4825871518000000
  0.7263338342500000  0.2035854751333333  0.4825871518000000
  0.2263338342500000  0.5369188084666666  0.4825871518000000
  0.7263338342500000  0.5369188084666666  0.4825871518000000
  0.2263338342500000  0.8702521418000000  0.4825871518000000
  0.7263338342500000  0.8702521418000000  0.4825871518000000
  0.2263338342500000  0.2035854751333333  0.9825871518000000
  0.7263338342500000  0.2035854751333333  0.9825871518000000
  0.2263338342500000  0.5369188084666666  0.9825871518000000
  0.7263338342500000  0.5369188084666666  0.9825871518000000
  0.2263338342500000  0.8702521418000000  0.9825871518000000
  0.7263338342500000  0.8702521418000000  0.9825871518000000
  0.2138509296500000  0.2523255379000000  0.0434828581050000
  0.7138509296500000  0.2523255379000000  0.0434828581050000
  0.2138509296500000  0.5856588712333333  0.0434828581050000
  0.7138509296500000  0.5856588712333333  0.0434828581050000
  0.2138509296500000  0.9189922045666666  0.0434828581050000
  0.7138509296500000  0.9189922045666666  0.0434828581050000
  0.2138509296500000  0.2523255379000000  0.5434828581050000
  0.7138509296500000  0.2523255379000000  0.5434828581050000
  0.2138509296500000  0.5856588712333333  0.5434828581050000
  0.7138509296500000  0.5856588712333333  0.5434828581050000
  0.2138509296500000  0.9189922045666666  0.5434828581050000
  0.7138509296500000  0.9189922045666666  0.5434828581050000
  0.2461601252500000  0.2285565986666667  0.1340947946500000
  0.7461601252500000  0.2285565986666667  0.1340947946500000
  0.2461601252500000  0.5618899319999999  0.1340947946500000
  0.7461601252500000  0.5618899319999999  0.1340947946500000
  0.2461601252500000  0.8952232653333333  0.1340947946500000
  0.7461601252500000  0.8952232653333333  0.1340947946500000
  0.2461601252500000  0.2285565986666667  0.6340947946500000
  0.7461601252500000  0.2285565986666667  0.6340947946500000
  0.2461601252500000  0.5618899319999999  0.6340947946500000
  0.7461601252500000  0.5618899319999999  0.6340947946500000
  0.2461601252500000  0.8952232653333333  0.6340947946500000
  0.7461601252500000  0.8952232653333333  0.6340947946500000
  0.4566976330500000  0.3219318617333333  0.3312789461500000
  0.9566976330500000  0.3219318617333333  0.3312789461500000
  0.4566976330500000  0.6552651950666666  0.3312789461500000
  0.9566976330500000  0.6552651950666666  0.3312789461500000
  0.4566976330500000  0.9885985284000000  0.3312789461500000
  0.9566976330500000  0.9885985284000000  0.3312789461500000
  0.4566976330500000  0.3219318617333333  0.8312789461500000
  0.9566976330500000  0.3219318617333333  0.8312789461500000
  0.4566976330500000  0.6552651950666666  0.8312789461500000
  0.9566976330500000  0.6552651950666666  0.8312789461500000
  0.4566976330500000  0.9885985284000000  0.8312789461500000
  0.9566976330500000  0.9885985284000000  0.8312789461500000
  0.4428090654000000  0.2738793719000000  0.3878505898500000
  0.9428090654000000  0.2738793719000000  0.3878505898500000
  0.4428090654000000  0.6072127052333333  0.3878505898500000
  0.9428090654000000  0.6072127052333333  0.3878505898500000
  0.4428090654000000  0.9405460385666666  0.3878505898500000
  0.9428090654000000  0.9405460385666666  0.3878505898500000
  0.4428090654000000  0.2738793719000000  0.8878505898500000
  0.9428090654000000  0.2738793719000000  0.8878505898500000
  0.4428090654000000  0.6072127052333333  0.8878505898500000
  0.9428090654000000  0.6072127052333333  0.8878505898500000
  0.4428090654000000  0.9405460385666666  0.8878505898500000
  0.9428090654000000  0.9405460385666666  0.8878505898500000
  0.4763338365000000  0.2964145242333333  0.4825871524500000
  0.9763338365000001  0.2964145242333333  0.4825871524500000
  0.4763338365000000  0.6297478575666666  0.4825871524500000
  0.9763338365000001  0.6297478575666666  0.4825871524500000
  0.4763338365000000  0.9630811908999999  0.4825871524500000
  0.9763338365000001  0.9630811908999999  0.4825871524500000
  0.4763338365000000  0.2964145242333333  0.9825871524500001
  0.9763338365000001  0.2964145242333333  0.9825871524500001
  0.4763338365000000  0.6297478575666666  0.9825871524500001
  0.9763338365000001  0.6297478575666666  0.9825871524500001
  0.4763338365000000  0.9630811908999999  0.9825871524500001
  0.9763338365000001  0.9630811908999999  0.9825871524500001
  0.4638509321000000  0.2476744613666667  0.0434828587900000
  0.9638509320999999  0.2476744613666667  0.0434828587900000
  0.4638509321000000  0.5810077947000000  0.0434828587900000
  0.9638509320999999  0.5810077947000000  0.0434828587900000
  0.4638509321000000  0.9143411280333332  0.0434828587900000
  0.9638509320999999  0.9143411280333332  0.0434828587900000
  0.4638509321000000  0.2476744613666667  0.5434828587900000
  0.9638509320999999  0.2476744613666667  0.5434828587900000
  0.4638509321000000  0.5810077947000000  0.5434828587900000
  0.9638509320999999  0.5810077947000000  0.5434828587900000
  0.4638509321000000  0.9143411280333332  0.5434828587900000
  0.9638509320999999  0.9143411280333332  0.5434828587900000
  0.4961601253500000  0.2714434015333334  0.1340947944500000
  0.9961601253500000  0.2714434015333334  0.1340947944500000
  0.4961601253500000  0.6047767348666666  0.1340947944500000
  0.9961601253500000  0.6047767348666666  0.1340947944500000
  0.4961601253500000  0.9381100682000000  0.1340947944500000
  0.9961601253500000  0.9381100682000000  0.1340947944500000
  0.4961601253500000  0.2714434015333334  0.6340947944499999
  0.9961601253500000  0.2714434015333334  0.6340947944499999
  0.4961601253500000  0.6047767348666666  0.6340947944499999
  0.9961601253500000  0.6047767348666666  0.6340947944499999
  0.4961601253500000  0.9381100682000000  0.6340947944499999
  0.9961601253500000  0.9381100682000000  0.6340947944499999
  0.2933023653500000  0.1552651945333333  0.1687210530000000
  0.7933023653500000  0.1552651945333333  0.1687210530000000
  0.2933023653500000  0.4885985278666667  0.1687210530000000
  0.7933023653500000  0.4885985278666667  0.1687210530000000
  0.2933023653500000  0.8219318611999999  0.1687210530000000
  0.7933023653500000  0.8219318611999999  0.1687210530000000
  0.2933023653500000  0.1552651945333333  0.6687210530000001
  0.7933023653500000  0.1552651945333333  0.6687210530000001
  0.2933023653500000  0.4885985278666667  0.6687210530000001
  0.7933023653500000  0.4885985278666667  0.6687210530000001
  0.2933023653500000  0.8219318611999999  0.6687210530000001
  0.7933023653500000  0.8219318611999999  0.6687210530000001
  0.3071909282500000  0.1072127031333333  0.1121494077500000
  0.8071909282500001  0.1072127031333333  0.1121494077500000
  0.3071909282500000  0.4405460364666667  0.1121494077500000
  0.8071909282500001  0.4405460364666667  0.1121494077500000
  0.3071909282500000  0.7738793697999999  0.1121494077500000
  0.8071909282500001  0.7738793697999999  0.1121494077500000
  0.3071909282500000  0.1072127031333333  0.6121494077500000
  0.8071909282500001  0.1072127031333333  0.6121494077500000
  0.3071909282500000  0.4405460364666667  0.6121494077500000
  0.8071909282500001  0.4405460364666667  0.6121494077500000
  0.3071909282500000  0.7738793697999999  0.6121494077500000
  0.8071909282500001  0.7738793697999999  0.6121494077500000
  0.2736661615500000  0.1297478568666666  0.0174128467750000
  0.7736661615500000  0.1297478568666666  0.0174128467750000
  0.2736661615500000  0.4630811901999999  0.0174128467750000
  0.7736661615500000  0.4630811901999999  0.0174128467750000
  0.2736661615500000  0.7964145235333333  0.0174128467750000
  0.7736661615500000  0.7964145235333333  0.0174128467750000
  0.2736661615500000  0.1297478568666666  0.5174128467750000
  0.7736661615500000  0.1297478568666666  0.5174128467750000
  0.2736661615500000  0.4630811901999999  0.5174128467750000
  0.7736661615500000  0.4630811901999999  0.5174128467750000
  0.2736661615500000  0.7964145235333333  0.5174128467750000
  0.7736661615500000  0.7964145235333333  0.5174128467750000
  0.2861490708500000  0.0810077956666667  0.4565171422000000
  0.7861490708500001  0.0810077956666667  0.4565171422000000
  0.2861490708500000  0.4143411290000000  0.4565171422000000
  0.7861490708500001  0.4143411290000000  0.4565171422000000
  0.2861490708500000  0.7476744623333333  0.4565171422000000
  0.7861490708500001  0.7476744623333333  0.4565171422000000
  0.2861490708500000  0.0810077956666667  0.9565171422000001
  0.7861490708500001  0.0810077956666667  0.9565171422000001
  0.2861490708500000  0.4143411290000000  0.9565171422000001
  0.7861490708500001  0.4143411290000000  0.9565171422000001
  0.2861490708500000  0.7476744623333333  0.9565171422000001
  0.7861490708500001  0.7476744623333333  0.9565171422000001
  0.2538398807000000  0.1047767368333333  0.3659052077000000
  0.7538398807000000  0.1047767368333333  0.3659052077000000
  0.2538398807000000  0.4381100701666667  0.3659052077000000
  0.7538398807000000  0.4381100701666667  0.3659052077000000
  0.2538398807000000  0.7714434035000000  0.3659052077000000
  0.7538398807000000  0.7714434035000000  0.3659052077000000
  0.2538398807000000  0.1047767368333333  0.8659052077000000
  0.7538398807000000  0.1047767368333333  0.8659052077000000
  0.2538398807000000  0.4381100701666667  0.8659052077000000
  0.7538398807000000  0.4381100701666667  0.8659052077000000
  0.2538398807000000  0.7714434035000000  0.8659052077000000
  0.7538398807000000  0.7714434035000000  0.8659052077000000
  0.0686322770500000  0.0292225506066667  0.2403578794000000
  0.5686322770500000  0.0292225506066667  0.2403578794000000
  0.0686322770500000  0.3625558839399999  0.2403578794000000
  0.5686322770500000  0.3625558839399999  0.2403578794000000
  0.0686322770500000  0.6958892172733333  0.2403578794000000
  0.5686322770500000  0.6958892172733333  0.2403578794000000
  0.0686322770500000  0.0292225506066667  0.7403578794000000
  0.5686322770500000  0.0292225506066667  0.7403578794000000
  0.0686322770500000  0.3625558839399999  0.7403578794000000
  0.5686322770500000  0.3625558839399999  0.7403578794000000
  0.0686322770500000  0.6958892172733333  0.7403578794000000
  0.5686322770500000  0.6958892172733333  0.7403578794000000
  0.0935888732000000  0.1151255204000000  0.1387588939500000
  0.5935888732000000  0.1151255204000000  0.1387588939500000
  0.0935888732000000  0.4484588537333333  0.1387588939500000
  0.5935888732000000  0.4484588537333333  0.1387588939500000
  0.0935888732000000  0.7817921870666666  0.1387588939500000
  0.5935888732000000  0.7817921870666666  0.1387588939500000
  0.0935888732000000  0.1151255204000000  0.6387588939500000
  0.5935888732000000  0.1151255204000000  0.6387588939500000
  0.0935888732000000  0.4484588537333333  0.6387588939500000
  0.5935888732000000  0.4484588537333333  0.6387588939500000
  0.0935888732000000  0.7817921870666666  0.6387588939500000
  0.5935888732000000  0.7817921870666666  0.6387588939500000
  0.0718385293000000  0.1415153833000000  0.4828535694000000
  0.5718385293000000  0.1415153833000000  0.4828535694000000
  0.0718385293000000  0.4748487166333333  0.4828535694000000
  0.5718385293000000  0.4748487166333333  0.4828535694000000
  0.0718385293000000  0.8081820499666665  0.4828535694000000
  0.5718385293000000  0.8081820499666665  0.4828535694000000
  0.0718385293000000  0.1415153833000000  0.9828535694000000
  0.5718385293000000  0.1415153833000000  0.9828535694000000
  0.0718385293000000  0.4748487166333333  0.9828535694000000
  0.5718385293000000  0.4748487166333333  0.9828535694000000
  0.0718385293000000  0.8081820499666665  0.9828535694000000
  0.5718385293000000  0.8081820499666665  0.9828535694000000
  0.0144271086250000  0.0989237992333333  0.3204873313500000
  0.5144271086250000  0.0989237992333333  0.3204873313500000
  0.0144271086250000  0.4322571325666666  0.3204873313500000
  0.5144271086250000  0.4322571325666666  0.3204873313500000
  0.0144271086250000  0.7655904659000000  0.3204873313500000
  0.5144271086250000  0.7655904659000000  0.3204873313500000
  0.0144271086250000  0.0989237992333333  0.8204873313500001
  0.5144271086250000  0.0989237992333333  0.8204873313500001
  0.0144271086250000  0.4322571325666666  0.8204873313500001
  0.5144271086250000  0.4322571325666666  0.8204873313500001
  0.0144271086250000  0.7655904659000000  0.8204873313500001
  0.5144271086250000  0.7655904659000000  0.8204873313500001
  0.1813677188000000  0.1958892157333333  0.2596421186500000
  0.6813677188000000  0.1958892157333333  0.2596421186500000
  0.1813677188000000  0.5292225490666667  0.2596421186500000
  0.6813677188000000  0.5292225490666667  0.2596421186500000
  0.1813677188000000  0.8625558823999999  0.2596421186500000
  0.6813677188000000  0.8625558823999999  0.2596421186500000
  0.1813677188000000  0.1958892157333333  0.7596421186500000
  0.6813677188000000  0.1958892157333333  0.7596421186500000
  0.1813677188000000  0.5292225490666667  0.7596421186500000
  0.6813677188000000  0.5292225490666667  0.7596421186500000
  0.1813677188000000  0.8625558823999999  0.7596421186500000
  0.6813677188000000  0.8625558823999999  0.7596421186500000
  0.1564111145000000  0.2817921828000000  0.3612411012500000
  0.6564111145000000  0.2817921828000000  0.3612411012500000
  0.1564111145000000  0.6151255161333333  0.3612411012500000
  0.6564111145000000  0.6151255161333333  0.3612411012500000
  0.1564111145000000  0.9484588494666666  0.3612411012500000
  0.6564111145000000  0.9484588494666666  0.3612411012500000
  0.1564111145000000  0.2817921828000000  0.8612411012500000
  0.6564111145000000  0.2817921828000000  0.8612411012500000
  0.1564111145000000  0.6151255161333333  0.8612411012500000
  0.6564111145000000  0.6151255161333333  0.8612411012500000
  0.1564111145000000  0.9484588494666666  0.8612411012500000
  0.6564111145000000  0.9484588494666666  0.8612411012500000
  0.1781614775000000  0.3081820521999999  0.0171464329550000
  0.6781614775000000  0.3081820521999999  0.0171464329550000
  0.1781614775000000  0.6415153855333333  0.0171464329550000
  0.6781614775000000  0.6415153855333333  0.0171464329550000
  0.1781614775000000  0.9748487188666666  0.0171464329550000
  0.6781614775000000  0.9748487188666666  0.0171464329550000
  0.1781614775000000  0.3081820521999999  0.5171464329550000
  0.6781614775000000  0.3081820521999999  0.5171464329550000
  0.1781614775000000  0.6415153855333333  0.5171464329550000
  0.6781614775000000  0.6415153855333333  0.5171464329550000
  0.1781614775000000  0.9748487188666666  0.5171464329550000
  0.6781614775000000  0.9748487188666666  0.5171464329550000
  0.2355729055500000  0.2655904706666666  0.1795126738500000
  0.7355729055500000  0.2655904706666666  0.1795126738500000
  0.2355729055500000  0.5989238040000000  0.1795126738500000
  0.7355729055500000  0.5989238040000000  0.1795126738500000
  0.2355729055500000  0.9322571373333333  0.1795126738500000
  0.7355729055500000  0.9322571373333333  0.1795126738500000
  0.2355729055500000  0.2655904706666666  0.6795126738500000
  0.7355729055500000  0.2655904706666666  0.6795126738500000
  0.2355729055500000  0.5989238040000000  0.6795126738500000
  0.7355729055500000  0.5989238040000000  0.6795126738500000
  0.2355729055500000  0.9322571373333333  0.6795126738500000
  0.7355729055500000  0.9322571373333333  0.6795126738500000
  0.4313677151500000  0.3041107857000000  0.2596421169500000
  0.9313677151499999  0.3041107857000000  0.2596421169500000
  0.4313677151500000  0.6374441190333333  0.2596421169500000
  0.9313677151499999  0.6374441190333333  0.2596421169500000
  0.4313677151500000  0.9707774523666666  0.2596421169500000
  0.9313677151499999  0.9707774523666666  0.2596421169500000
  0.4313677151500000  0.3041107857000000  0.7596421169500001
  0.9313677151499999  0.3041107857000000  0.7596421169500001
  0.4313677151500000  0.6374441190333333  0.7596421169500001
  0.9313677151499999  0.6374441190333333  0.7596421169500001
  0.4313677151500000  0.9707774523666666  0.7596421169500001
  0.9313677151499999  0.9707774523666666  0.7596421169500001
  0.4064111154500000  0.2182078170666666  0.3612411013500000
  0.9064111154500001  0.2182078170666666  0.3612411013500000
  0.4064111154500000  0.5515411504000000  0.3612411013500000
  0.9064111154500001  0.5515411504000000  0.3612411013500000
  0.4064111154500000  0.8848744837333333  0.3612411013500000
  0.9064111154500001  0.8848744837333333  0.3612411013500000
  0.4064111154500000  0.2182078170666666  0.8612411013500000
  0.9064111154500001  0.2182078170666666  0.8612411013500000
  0.4064111154500000  0.5515411504000000  0.8612411013500000
  0.9064111154500001  0.5515411504000000  0.8612411013500000
  0.4064111154500000  0.8848744837333333  0.8612411013500000
  0.9064111154500001  0.8848744837333333  0.8612411013500000
  0.4281614814500000  0.1918179466000000  0.0171464342000000
  0.9281614814500000  0.1918179466000000  0.0171464342000000
  0.4281614814500000  0.5251512799333333  0.0171464342000000
  0.9281614814500000  0.5251512799333333  0.0171464342000000
  0.4281614814500000  0.8584846132666666  0.0171464342000000
  0.9281614814500000  0.8584846132666666  0.0171464342000000
  0.4281614814500000  0.1918179466000000  0.5171464341999999
  0.9281614814500000  0.1918179466000000  0.5171464341999999
  0.4281614814500000  0.5251512799333333  0.5171464341999999
  0.9281614814500000  0.5251512799333333  0.5171464341999999
  0.4281614814500000  0.8584846132666666  0.5171464341999999
  0.9281614814500000  0.8584846132666666  0.5171464341999999
  0.4855729044000000  0.2344095300000000  0.1795126731000000
  0.9855729044000000  0.2344095300000000  0.1795126731000000
  0.4855729044000000  0.5677428633333333  0.1795126731000000
  0.9855729044000000  0.5677428633333333  0.1795126731000000
  0.4855729044000000  0.9010761966666667  0.1795126731000000
  0.9855729044000000  0.9010761966666667  0.1795126731000000
  0.4855729044000000  0.2344095300000000  0.6795126731000000
  0.9855729044000000  0.2344095300000000  0.6795126731000000
  0.4855729044000000  0.5677428633333333  0.6795126731000000
  0.9855729044000000  0.5677428633333333  0.6795126731000000
  0.4855729044000000  0.9010761966666667  0.6795126731000000
  0.9855729044000000  0.9010761966666667  0.6795126731000000
  0.3186322807000000  0.1374441175000000  0.2403578811500000
  0.8186322806999999  0.1374441175000000  0.2403578811500000
  0.3186322807000000  0.4707774508333333  0.2403578811500000
  0.8186322806999999  0.4707774508333333  0.2403578811500000
  0.3186322807000000  0.8041107841666666  0.2403578811500000
  0.8186322806999999  0.8041107841666666  0.2403578811500000
  0.3186322807000000  0.1374441175000000  0.7403578811500000
  0.8186322806999999  0.1374441175000000  0.7403578811500000
  0.3186322807000000  0.4707774508333333  0.7403578811500000
  0.8186322806999999  0.4707774508333333  0.7403578811500000
  0.3186322807000000  0.8041107841666666  0.7403578811500000
  0.8186322806999999  0.8041107841666666  0.7403578811500000
  0.3435888722500000  0.0515411461333333  0.1387588938500000
  0.8435888722500000  0.0515411461333333  0.1387588938500000
  0.3435888722500000  0.3848744794666666  0.1387588938500000
  0.8435888722500000  0.3848744794666666  0.1387588938500000
  0.3435888722500000  0.7182078127999999  0.1387588938500000
  0.8435888722500000  0.7182078127999999  0.1387588938500000
  0.3435888722500000  0.0515411461333333  0.6387588938500000
  0.8435888722500000  0.0515411461333333  0.6387588938500000
  0.3435888722500000  0.3848744794666666  0.6387588938500000
  0.8435888722500000  0.3848744794666666  0.6387588938500000
  0.3435888722500000  0.7182078127999999  0.6387588938500000
  0.8435888722500000  0.7182078127999999  0.6387588938500000
  0.3218385253000000  0.0251512821833333  0.4828535681500000
  0.8218385253000000  0.0251512821833333  0.4828535681500000
  0.3218385253000000  0.3584846155166667  0.4828535681500000
  0.8218385253000000  0.3584846155166667  0.4828535681500000
  0.3218385253000000  0.6918179488499999  0.4828535681500000
  0.8218385253000000  0.6918179488499999  0.4828535681500000
  0.3218385253000000  0.0251512821833333  0.9828535681500000
  0.8218385253000000  0.0251512821833333  0.9828535681500000
  0.3218385253000000  0.3584846155166667  0.9828535681500000
  0.8218385253000000  0.3584846155166667  0.9828535681500000
  0.3218385253000000  0.6918179488499999  0.9828535681500000
  0.8218385253000000  0.6918179488499999  0.9828535681500000
  0.2644271097500000  0.0677428681000000  0.3204873321000000
  0.7644271097499999  0.0677428681000000  0.3204873321000000
  0.2644271097500000  0.4010762014333333  0.3204873321000000
  0.7644271097499999  0.4010762014333333  0.3204873321000000
  0.2644271097500000  0.7344095347666666  0.3204873321000000
  0.7644271097499999  0.7344095347666666  0.3204873321000000
  0.2644271097500000  0.0677428681000000  0.8204873321000000
  0.7644271097499999  0.0677428681000000  0.8204873321000000
  0.2644271097500000  0.4010762014333333  0.8204873321000000
  0.7644271097499999  0.4010762014333333  0.8204873321000000
  0.2644271097500000  0.7344095347666666  0.8204873321000000
  0.7644271097499999  0.7344095347666666  0.8204873321000000
